%pal nprocs 16 end
%MaxCore 6000
# put your comments here
! B97-3C  OPT  FREQ DEFGRID3 NOTRAH
%scf MaxIter 800 end
%output
Print [P_Hirshfeld] 1
end
%geom
MaxIter 3000
 TolE 1e-6 #TolE 5e-6 Energy change (a.u.)
 TolRMSG 3e-5 #TolRMSG 1e-4 RMS gradient (a.u.)
 TolMaxG 1e-4 #TolMaxG 3e-3 Max. element of gradient (a.u.)
 TolRMSD 2e-3 #TolRMSD 2e-3 RMS displacement (a.u.)
 TolMaxD 4e-3 #TolMaxD 4e-3 Max. displacement (a.u.)
end
* xyz 0 1
 O 8.23033039764264 1.26700833821897 1.41521598691941
 C -4.38586366192187 0.51266929111209 -1.85372168436310
 C -5.48315711913873 1.54291206338139 -1.55535185058048
 C -6.20712178476402 1.23644111677652 -0.25416696920394
 C -3.53465868547046 0.25856392061869 -0.61438937158858
 C -5.21646458160252 1.32437035515707 0.89814231573600
 C -3.92983417676049 0.59443645070599 0.62030288382317
 C -3.50548558989787 1.07330598687419 -2.97911610408600
 C -5.01538661251532 -0.80697015597322 -2.32318513348750
 C -2.26833443071370 -0.41853850076139 -0.88521244063249
 C -3.14414793986722 0.28082496084480 1.86108687046417
 C -1.07257493637332 -0.01821027012303 -0.42537194183808
 C 0.19629936570271 -0.65251614428780 -0.68952268483542
 C 0.19200522135141 -1.91074113676541 -1.50582575959596
 C 1.32190167120579 -0.08286238772779 -0.18973527842491
 C 2.66891828415542 -0.52996931269052 -0.33149210661436
 C 3.71279177195074 0.12845535480455 0.21381894628518
 C 5.10279298989047 -0.25035465017110 0.11999002879558
 C 5.45042115225178 -1.48986727480739 -0.65349764940726
 C 6.03333130386341 0.50761506748027 0.72080410472783
 C 7.51441129317843 0.27107223789668 0.72252028069757
 H -6.19036761952948 1.56772441768365 -2.38738701680420
 H -5.02697146419896 2.53264679611189 -1.47585920217938
 H -6.64056924473690 0.23622190873945 -0.29327052796771
 H -7.02345998976650 1.94560576092076 -0.10035488718375
 H -5.66986997673057 0.93206902296111 1.81212238986139
 H -4.97432273595306 2.37636965200109 1.08937691932078
 H -2.98430191815186 1.96731570169493 -2.64291427877637
 H -2.76140664907078 0.34900072414835 -3.29962603742240
 H -4.12139329558082 1.33474975672461 -3.83768287331623
 H -5.68093960082808 -0.62569371038236 -3.16501792056380
 H -4.25101199468224 -1.50968696614100 -2.64473356969630
 H -5.58520553717161 -1.27285290546422 -1.52334133775358
 H -2.32778198000135 -1.26906046396279 -1.55027893818784
 H -2.67785420377821 1.18476393771109 2.25441910427402
 H -2.36626308139704 -0.45311030595290 1.67269222635702
 H -3.81010677800575 -0.10396744139921 2.63326861604559
 H -1.02715155405340 0.87595908594091 0.18247873092958
 H 1.18327427674868 -2.34205257745426 -1.59242275387333
 H -0.46410812285164 -2.65070532347688 -1.04872691085189
 H -0.17896382804356 -1.70403512904489 -2.50980020876825
 H 1.20229804875888 0.82599367668188 0.38929593626939
 H 2.84902160286296 -1.42926786708495 -0.90028149886240
 H 3.51224167503011 1.02935423672466 0.78115307791797
 H 4.95725044693785 -2.35454020756382 -0.21167733642357
 H 6.52045891032917 -1.66913146510624 -0.65500855131927
 H 5.11166866754146 -1.39615427329781 -1.68452211504127
 H 5.72094241394565 1.38220107190824 1.27727783574547
 H 7.88835434190334 0.19139663233317 -0.31271408137795
 H 7.75649896316006 -0.66449500141252 1.23892557822145
 H 7.99668829514693 2.12663494489772 1.04786918863908
*



