%pal nprocs 16 end
%MaxCore 6000
# put your comments here
! B97-3C  OPT  FREQ DEFGRID3 NOTRAH
%scf MaxIter 800 end
%output
Print [P_Hirshfeld] 1
end
%geom
MaxIter 3000
 TolE 1e-6 #TolE 5e-6 Energy change (a.u.)
 TolRMSG 3e-5 #TolRMSG 1e-4 RMS gradient (a.u.)
 TolMaxG 1e-4 #TolMaxG 3e-3 Max. element of gradient (a.u.)
 TolRMSD 2e-3 #TolRMSD 2e-3 RMS displacement (a.u.)
 TolMaxD 4e-3 #TolMaxD 4e-3 Max. displacement (a.u.)
end
* xyz 0 1
 O 8.25873482933219 0.54749347226025 1.44640225398739
 C -4.26005805794252 1.40032430601809 -2.18327404703056
 C -5.49609927086343 1.32254301498037 -1.27738122206782
 C -5.93822629762642 2.69839902279388 -0.80548525064380
 C -3.20146401354898 2.31208500040493 -1.57248111686697
 C -4.83076296221044 3.31374606913414 0.03819400264847
 C -3.47314375563649 3.19189763229257 -0.60010297654291
 C -4.65512434750801 1.92949212505964 -3.56966408634564
 C -3.69492488838345 -0.01879139867815 -2.33361211430328
 C -1.87383200327326 2.17121507482745 -2.16657285056971
 C -2.46476763122263 4.15416710562550 -0.04107767555868
 C -0.73650298356354 2.01457617373908 -1.47123489844475
 C 0.58533809204797 1.85460687410382 -2.02741298160137
 C 0.72894050240014 1.92337400428375 -3.51877504942962
 C 1.62488668450976 1.65129807783724 -1.17932567639888
 C 3.00041160409645 1.46328298376122 -1.50651033144659
 C 3.94896766924907 1.26709017475485 -0.56719494849165
 C 5.35867764411016 1.06851976158583 -0.80737639648354
 C 5.84509209803141 1.07655370865311 -2.22823859685802
 C 6.18411557545826 0.88448654202229 0.23482682025115
 C 7.66760907838004 0.67220743858386 0.17386918198710
 H -5.25549355783523 0.71427107584290 -0.40211401480136
 H -6.30682742700074 0.82634601727519 -1.81546348455467
 H -6.85561216211212 2.61919800194055 -0.21803783046403
 H -6.14859543908499 3.33886670641754 -1.66304586096921
 H -4.79364160311786 2.81067513919103 1.01156046142204
 H -5.05028299099283 4.36662669321642 0.23347130685314
 H -4.98860020333863 2.96243203140129 -3.51175573475429
 H -3.81401434321896 1.88580589191152 -4.25675838835877
 H -5.46022305675507 1.32640152581931 -3.98510908781455
 H -4.47207338730014 -0.69260061908896 -2.68975338664125
 H -2.86937674581482 -0.04489013331351 -3.03986469123373
 H -3.33210743205979 -0.38568745511802 -1.37567383792955
 H -1.84785160009093 2.14230993315953 -3.24718073803557
 H -2.91186831453934 5.14332198535810 0.05661464811382
 H -1.58412126922119 4.22919860426487 -0.67202838482903
 H -2.15032299154519 3.83935587415802 0.95455096423233
 H -0.79366661054798 1.97675569846898 -0.39123976483374
 H 1.76569280572184 1.85848508357462 -3.83037764604614
 H 0.18083211761917 1.10466492555449 -3.98522157622048
 H 0.31781921834583 2.86100977576479 -3.89137333541260
 H 1.40100125558301 1.62257837832330 -0.11883178396155
 H 3.28203795589800 1.47852725039263 -2.54822060667733
 H 3.64650807979459 1.25192865030147 0.47299747339617
 H 5.35033599650319 0.28925284062772 -2.79514794757716
 H 6.91673182279862 0.91558838756223 -2.28125565493058
 H 5.61267179194109 2.03097742046643 -2.69907883253567
 H 5.77312397925384 0.87372809655746 1.23638300052627
 H 8.14731387460814 1.49480658208859 -0.38385255027973
 H 7.90371494847259 -0.26489939291229 -0.34254145587198
 H 8.01980872220031 1.31742386675104 1.97422770039834
*



