%pal nprocs 16 end
%MaxCore 6000
# put your comments here
! B97-3C  OPT  FREQ DEFGRID3 NOTRAH
%scf MaxIter 800 end
%output
Print [P_Hirshfeld] 1
end
%geom
MaxIter 3000
 TolE 1e-6 #TolE 5e-6 Energy change (a.u.)
 TolRMSG 3e-5 #TolRMSG 1e-4 RMS gradient (a.u.)
 TolMaxG 1e-4 #TolMaxG 3e-3 Max. element of gradient (a.u.)
 TolRMSD 2e-3 #TolRMSD 2e-3 RMS displacement (a.u.)
 TolMaxD 4e-3 #TolMaxD 4e-3 Max. displacement (a.u.)
end
* xyz 0 1
 O 8.20207925304791 -0.06680011502089 1.26050621744771
 C -4.06380759201225 2.98263719428273 -2.00774413074855
 C -5.50013271437162 2.91217455674012 -1.46857160560852
 C -5.56715361098935 2.24976574820044 -0.10189164281805
 C -3.07005943475064 3.34473855365581 -0.90850612573495
 C -4.79065315821674 3.10531272770328 0.88679266384586
 C -3.40933030095123 3.42279721100180 0.38504311934028
 C -4.04487134247241 4.03300141243426 -3.12936024093695
 C -3.65238442558549 1.62585333077894 -2.59629199626468
 C -1.70489678717560 3.57667380876367 -1.37415875369402
 C -2.48245949845083 3.89099969015346 1.46956006594845
 C -0.61246086657409 3.02238328356367 -0.82372827491845
 C 0.74850120860986 3.21001927611452 -1.26362514347714
 C 0.99089110129231 4.15237964513379 -2.40513285568388
 C 1.73495932236910 2.52906160172836 -0.62712802416933
 C 3.13524214810834 2.55713488281768 -0.89629282162633
 C 4.02445438490576 1.82823753192886 -0.19003125564737
 C 5.45329226938883 1.79551185002421 -0.39399584668198
 C 6.03390225463130 2.64349185469949 -1.48916179373884
 C 6.21270439618764 1.01721197061794 0.39277473292069
 C 7.70202359928914 0.85525696813479 0.32023123080203
 H -6.12326273854052 2.37236502744622 -2.18490163535495
 H -5.89652507665444 3.92665914444229 -1.37964515621241
 H -5.13075552577463 1.25068767768300 -0.14633662824481
 H -6.60605102448489 2.14803768493181 0.21883629757134
 H -4.70809227944844 2.59505569520290 1.85035223723442
 H -5.33126406409514 4.04174197646674 1.06572734546734
 H -4.11512137326701 5.03697274968496 -2.71540497535374
 H -3.14231181132514 3.96272738995764 -3.73024910541803
 H -4.89522463881503 3.87412058642229 -3.79001107304422
 H -4.30425774508879 1.35847575015080 -3.42585131278552
 H -2.62715801001566 1.66554581146186 -2.95831591773544
 H -3.71103927786769 0.84417661557855 -1.84300355187501
 H -1.60113428943812 4.19884772044113 -2.25058495573392
 H -3.01821105460825 4.56789821733651 2.13532539245347
 H -1.61397878116483 4.40482351072671 1.06766008825810
 H -2.13720837648566 3.04895073323600 2.07009121859162
 H -0.74137511532576 2.34912708591229 0.01343557643417
 H 2.04795856399861 4.27016521913275 -2.61702163561966
 H 0.50142407476828 3.78258972988026 -3.30621714265144
 H 0.57698224607100 5.13337935687360 -2.17443970862083
 H 1.44077515677417 1.87712571918861 0.18774328968351
 H 3.48627855606937 3.18734163175947 -1.69898967889209
 H 3.65328005368864 1.20117387422233 0.61167875792346
 H 5.60682081321115 2.35941675240101 -2.45015839235285
 H 7.11221785967122 2.53677396595928 -1.54373983541688
 H 5.80047978763868 3.69220185328412 -1.31091836134189
 H 5.73913241203696 0.43904043502484 1.17609170304364
 H 8.20590088741714 1.80009512907786 0.55263406890989
 H 8.00318271374863 0.55388258417900 -0.69774601699687
 H 7.73651985103027 -0.90316461152629 1.14990358953285
*



