%pal nprocs 16 end
%MaxCore 6000
# put your comments here
! B97-3C  OPT  FREQ DEFGRID3 NOTRAH
%scf MaxIter 800 end
%output
Print [P_Hirshfeld] 1
end
%geom
MaxIter 3000
 TolE 1e-6 #TolE 5e-6 Energy change (a.u.)
 TolRMSG 3e-5 #TolRMSG 1e-4 RMS gradient (a.u.)
 TolMaxG 1e-4 #TolMaxG 3e-3 Max. element of gradient (a.u.)
 TolRMSD 2e-3 #TolRMSD 2e-3 RMS displacement (a.u.)
 TolMaxD 4e-3 #TolMaxD 4e-3 Max. displacement (a.u.)
end
* xyz 0 1
 O 8.61069871572419 1.06553951333822 1.34242960755045
 C -2.69000803510422 5.35833195638055 1.07313505114712
 C -4.13752873836871 5.26786580814901 0.57215389520473
 C -5.02262878691060 4.49683369562596 1.53818709118783
 C -2.19833643744471 3.99514941657643 1.54758362452361
 C -4.51736377503207 3.06457909939503 1.63965685161181
 C -3.02696795313367 2.98249499364178 1.83298787504448
 C -2.59339236993405 6.36813347358567 2.22603004891111
 C -1.81713806382648 5.84589879533176 -0.09143157235137
 C -0.74842494436401 3.90177328384965 1.70260532341343
 C -2.57005872924141 1.66016243046225 2.37885094549625
 C 0.01278010328291 2.91246787265871 1.20897611246490
 C 1.44641759727470 2.80214544839365 1.32890386628443
 C 2.16468029104875 3.85494380186903 2.11915565603164
 C 2.06852143899442 1.75819981759858 0.72460253484941
 C 3.46204314890483 1.45646215863792 0.70778280107455
 C 3.96262361837546 0.38339095940039 0.06119345402419
 C 5.34775522627248 -0.02771061632623 -0.03121457465208
 C 5.58403233320384 -1.22805071379458 -0.90604524518720
 C 6.34943071134312 0.60557854809800 0.59559582891572
 C 7.80265909659788 0.23820265180668 0.53773164893650
 H -4.14642257509180 4.75617276532995 -0.39328464150538
 H -4.52964317860699 6.27570357107125 0.41881386238448
 H -6.05777760285671 4.50430930232687 1.18978306457309
 H -5.00123082027282 4.96676069188783 2.52233682265020
 H -4.76957935326748 2.52454600338788 0.71951735769980
 H -5.02196048748895 2.54701075122398 2.45963972202664
 H -3.13752190346672 6.01615310706309 3.09870283975443
 H -1.55844764965279 6.52809088966860 2.51714120617474
 H -3.00842606072751 7.32655802402686 1.92003628186923
 H -2.21441079897444 6.77817785497378 -0.48870494341978
 H -0.79202115996224 6.01832257303025 0.22535726417768
 H -1.80443565885076 5.10758086162749 -0.89057397047364
 H -0.28005642581910 4.73306891558096 2.21125024078056
 H -3.22358529742565 1.35091080676520 3.19440587359877
 H -1.54927744322100 1.70527981584344 2.74661446007067
 H -2.62559875447130 0.89096361810435 1.60779907210297
 H -0.46815197679202 2.12520054783096 0.64330842681483
 H 3.22672514981784 3.65003954640423 2.19696358367413
 H 2.03971901523399 4.82832380219389 1.64478277522325
 H 1.75246773239962 3.91382636583226 3.12598563938363
 H 1.44431467325919 1.05783113455433 0.18090015786652
 H 4.13188079639275 2.12140652120710 1.23138739425156
 H 3.26373346355721 -0.25576364792283 -0.46553896877027
 H 4.88794009458028 -2.02438148911727 -0.64614831920077
 H 6.59709749843435 -1.60589852197774 -0.81463154729086
 H 5.41015421100720 -0.96149945307672 -1.94852048755334
 H 6.14099346801667 1.47399438208841 1.20413600529663
 H 8.19224930452568 0.36062047855871 -0.47887936620830
 H 7.94252136281781 -0.81753078443319 0.82702971233298
 H 8.27057292924419 1.04553917127000 2.24379165723444
*



