%pal nprocs 16 end
%MaxCore 6000
# put your comments here
! B97-3C  OPT  FREQ DEFGRID3 NOTRAH
%scf MaxIter 800 end
%output
Print [P_Hirshfeld] 1
end
%geom
MaxIter 3000
 TolE 1e-6 #TolE 5e-6 Energy change (a.u.)
 TolRMSG 3e-5 #TolRMSG 1e-4 RMS gradient (a.u.)
 TolMaxG 1e-4 #TolMaxG 3e-3 Max. element of gradient (a.u.)
 TolRMSD 2e-3 #TolRMSD 2e-3 RMS displacement (a.u.)
 TolMaxD 4e-3 #TolMaxD 4e-3 Max. displacement (a.u.)
end
* xyz 0 1
 O       1.59765145      -0.88265379      -0.06701653
 O       0.23802416       2.21479290       1.17854403
 O      -0.63247227       1.53223772      -1.41138432
 O      -1.51730675       0.04411589       0.96626920
 O      -0.98771450      -1.29472772      -2.46502601
 O       1.01564396      -2.84937515      -1.02011215
 C       1.13841122       0.44793756      -0.11127110
 C       0.66997077       0.89671817       1.25415545
 C       0.05004848       0.42723678      -1.11316380
 C      -0.39873582      -0.01120807       1.80325010
 C      -0.09683276      -0.81305016      -1.56948882
 C       0.88296122      -1.66864414      -0.88423655
 H       1.95569750       1.10098735      -0.43654095
 H       1.53766903       0.86090758       1.92890271
 H      -0.00599619      -1.02970359       1.88716437
 H      -0.64367566       0.32560999       2.81778871
 H      -0.51489677       2.24595043       0.57831400
 H      -1.35326430       1.29818725      -2.00831972
 H      -2.16112184      -0.61429097       1.24381170
 H      -0.77406093      -2.23102804      -2.57164032
*



