%pal nprocs 16 end
%MaxCore 6000
# put your comments here
! B97-3C  OPT  FREQ DEFGRID3 NOTRAH
%scf MaxIter 800 end
%output
Print [P_Hirshfeld] 1
end
%geom
MaxIter 3000
 TolE 1e-6 #TolE 5e-6 Energy change (a.u.)
 TolRMSG 3e-5 #TolRMSG 1e-4 RMS gradient (a.u.)
 TolMaxG 1e-4 #TolMaxG 3e-3 Max. element of gradient (a.u.)
 TolRMSD 2e-3 #TolRMSD 2e-3 RMS displacement (a.u.)
 TolMaxD 4e-3 #TolMaxD 4e-3 Max. displacement (a.u.)
end
* xyz 0 1
 O       1.55356103      -1.05666851      -0.43508732
 O      -0.63716481       1.61578176       1.18663592
 O      -1.59824178       0.35638892      -0.84963265
 O      -1.85966552      -0.45765890       2.10662073
 O       0.15315258      -1.35274946       1.80286940
 N      -0.89016597      -1.79273916      -0.88660180
 C       1.11702455       1.33518669      -0.52554247
 C       0.77811599      -0.06923552      -1.03176306
 C       0.74556748       1.53868829       0.93444385
 C       0.46389908       2.40109036      -1.39948132
 C       2.63773803       1.48514146      -0.63569938
 C      -0.69699088      -0.45220725      -0.92528972
 C      -2.06189838      -2.33357994      -0.24248197
 C      -1.75842262      -2.63958261       1.22223407
 C      -1.05625570      -1.43541959       1.78275251
 H       1.00526771      -0.09997679      -2.10718422
 H       1.19774195       2.47210301       1.28260090
 H       1.16843857       0.74026426       1.54294053
 H       0.82729055       2.33588959      -2.42411549
 H       0.70966253       3.39339488      -1.02666137
 H      -0.61419689       2.31601777      -1.43252685
 H       2.94507639       2.49722183      -0.37465578
 H       2.97636068       1.29059576      -1.65102455
 H       3.16000483       0.79642810       0.02157144
 H      -0.03798934      -2.33127455      -0.84883712
 H       1.25828909      -1.17814919       0.48382136
 H      -2.85200072      -1.59061345      -0.31463933
 H      -2.38654357      -3.24642478      -0.75507934
 H      -1.12022469       1.40320958       0.36749539
 H      -1.08976289      -3.49720288       1.30381018
 H      -2.67797379      -2.84018674       1.77596610
 H      -1.35969348       0.39626704       2.05254137
*



