%pal nprocs 16 end
%MaxCore 6000
# put your comments here
! B97-3C  OPT  FREQ DEFGRID3 NOTRAH
%scf MaxIter 800 end
%output
Print [P_Hirshfeld] 1
end
%geom
MaxIter 3000
 TolE 1e-6 #TolE 5e-6 Energy change (a.u.)
 TolRMSG 3e-5 #TolRMSG 1e-4 RMS gradient (a.u.)
 TolMaxG 1e-4 #TolMaxG 3e-3 Max. element of gradient (a.u.)
 TolRMSD 2e-3 #TolRMSD 2e-3 RMS displacement (a.u.)
 TolMaxD 4e-3 #TolMaxD 4e-3 Max. displacement (a.u.)
end
* xyz 0 1
 O -2.31026877048825 -1.17256973945149 0.11164559606658
 O -2.43004829618261 1.03151799365332 -0.21315137174920
 N 1.76751598642273 -1.17744288503906 0.16787863113337
 C -0.28393633999833 0.02136152591133 -0.03574903857784
 C 0.41474731471655 1.21680931205005 -0.20120762727697
 C 0.44942383039015 -1.15136696330636 0.14596517987347
 C 1.79672413365429 1.18655484941971 -0.17777190581976
 C 2.42255755632812 -0.03907075097658 0.01028946458952
 C -1.76389345814364 0.03908695103675 -0.05855888950989
 H -0.13693583895075 2.13448917103644 -0.34307877479728
 H -0.04951156844748 -2.10124667600831 0.27813502147868
 H 2.37648302343169 2.08772871821675 -0.30174917102808
 H 3.50161409838416 -0.11751384826319 0.03652634479036
 H -3.27772491640354 -1.10390748602786 0.08833440407717
*



