%pal nprocs 16 end
%MaxCore 6000
# put your comments here
! B97-3C  OPT  FREQ DEFGRID3 NOTRAH
%scf MaxIter 800 end
%output
Print [P_Hirshfeld] 1
end
%geom
MaxIter 3000
 TolE 1e-6 #TolE 5e-6 Energy change (a.u.)
 TolRMSG 3e-5 #TolRMSG 1e-4 RMS gradient (a.u.)
 TolMaxG 1e-4 #TolMaxG 3e-3 Max. element of gradient (a.u.)
 TolRMSD 2e-3 #TolRMSD 2e-3 RMS displacement (a.u.)
 TolMaxD 4e-3 #TolMaxD 4e-3 Max. displacement (a.u.)
end
* xyz 0 1
 O 3.65148138414819 -0.67221881444229 -2.64946368502725
 O 2.47841304990346 -1.20127166698887 -6.34276425878277
 O 3.32337311731389 1.27091537945082 -5.57253328133317
 O 5.09820816421976 -0.99053723575242 -6.83468130820689
 O 5.20830727748435 -1.71815034652989 -4.72981259384919
 N 4.99848689863329 1.07424221942338 -4.06619148560704
 C 1.63789476760480 -0.63502236202810 -4.05987942475267
 C 2.84625713356998 0.14972193351731 -3.46246424712616
 C 2.06501265121650 -1.70935008274079 -5.08335440403914
 C 0.61698658494425 0.33312411941157 -4.67257867730871
 C 0.96583218079529 -1.37196035694251 -2.88697459984276
 C 3.72859341443555 0.87354808366275 -4.49128982101971
 C 6.04330559200335 1.31973387602021 -5.04709601959683
 C 6.72918328359318 -0.01085885932517 -5.42682272102054
 C 5.62227107210728 -1.02280903609185 -5.63160226908854
 H 2.43883787377367 0.92925956438322 -2.79835901881466
 H 1.20848222620253 -2.37582081948628 -5.26246087168990
 H 2.87359224116059 -2.31781743519205 -4.65099786747272
 H 0.30488219418642 1.06937621864874 -3.93106398849908
 H -0.26203635375616 -0.22226311820325 -5.00164679588458
 H 1.02638404282126 0.86273192071416 -5.52995317400572
 H 0.07703701974833 -1.90025620699430 -3.23252152832413
 H 0.66956812161487 -0.66151227053474 -2.11483336305869
 H 1.65206129606201 -2.09428710047173 -2.44556123077847
 H 5.27242521470231 0.57207226249178 -3.22974851936737
 H 4.11670631754246 -1.32510010395601 -3.20740400990514
 H 5.57276753263478 1.76662334039597 -5.92716072449245
 H 6.77788508949169 2.01542568900774 -4.63322196470389
 H 2.61766206088412 -0.23469929041964 -6.28656067888599
 H 7.37643426201806 -0.34722656518756 -4.61560776882730
 H 7.31037170144349 0.12450511025098 -6.33898207958391
 H 4.19790758750343 -1.41627504609634 -6.82059861910606
*



