%pal nprocs 16 end
%MaxCore 6000
# put your comments here
! B97-3C  OPT  FREQ DEFGRID3 NOTRAH
%scf MaxIter 800 end
%output
Print [P_Hirshfeld] 1
end
%geom
MaxIter 3000
 TolE 1e-6 #TolE 5e-6 Energy change (a.u.)
 TolRMSG 3e-5 #TolRMSG 1e-4 RMS gradient (a.u.)
 TolMaxG 1e-4 #TolMaxG 3e-3 Max. element of gradient (a.u.)
 TolRMSD 2e-3 #TolRMSD 2e-3 RMS displacement (a.u.)
 TolMaxD 4e-3 #TolMaxD 4e-3 Max. displacement (a.u.)
end
* xyz 0 1
 O -1.77291723240053 -1.48167435809059 8.33231499509632
 O -0.23272951709291 0.18182199304675 6.82297238235306
 O -2.73257604154955 -2.40658783979327 5.01629308390264
 O -3.96244323232192 2.57687916500749 5.55838484229832
 O -1.89275985705284 1.81718143474442 5.27235749530547
 N -3.51564622708586 -0.90256766838264 6.49740929218166
 C -0.18360051068721 -2.23309358933962 6.62316621406913
 C -1.63622854629673 -2.28044229098660 7.17996508043746
 C 0.06108367751302 -0.87954710503066 5.92639079206091
 C 0.04084542731468 -3.36921047012101 5.61889003337965
 C 0.80150788162328 -2.39153930206345 7.79138609622526
 C -2.66389371145933 -1.87713457598456 6.11266059268301
 C -4.46033446734117 -0.36468827837069 5.54272173797055
 C -3.74309321675369 0.48856651094030 4.47814396129791
 C -3.08068445888371 1.67376315035148 5.12353003534285
 H -1.87308196124579 -3.31518910506013 7.47127904021601
 H -0.57371362121573 -0.80151736463642 5.03175969635582
 H 1.11329817687175 -0.81956733777975 5.60469443472916
 H -0.13583237291714 -4.33350205343873 6.09605122480915
 H 1.06928070816005 -3.34584734900048 5.25591359778307
 H -0.62880991340628 -3.27815736150319 4.76558764530396
 H 1.82176852304117 -2.45488293056405 7.41141940460071
 H 0.57987744076627 -3.29878733086339 8.35380051530186
 H 0.73839494229071 -1.53929069342798 8.46683465121914
 H -3.34653651691821 -0.42175792835120 7.36842539718587
 H -1.25183863526575 -0.66845046388397 8.18325013433920
 H -4.95574802571290 -1.20054981317223 5.03917731794946
 H -5.20136568255279 0.23560508284376 6.07603301009355
 H -0.61872285376146 0.91947365879633 6.31817098935349
 H -4.48229833853209 0.84234948804283 3.75733536076394
 H -2.99194554006269 -0.11690396629796 3.96923930324828
 H -3.49042129706448 3.31844069237068 5.97254064214285
*



