%pal nprocs 16 end
%MaxCore 6000
# put your comments here
! B97-3C  OPT  FREQ DEFGRID3 NOTRAH
%scf MaxIter 800 end
%output
Print [P_Hirshfeld] 1
end
%geom
MaxIter 3000
 TolE 1e-6 #TolE 5e-6 Energy change (a.u.)
 TolRMSG 3e-5 #TolRMSG 1e-4 RMS gradient (a.u.)
 TolMaxG 1e-4 #TolMaxG 3e-3 Max. element of gradient (a.u.)
 TolRMSD 2e-3 #TolRMSD 2e-3 RMS displacement (a.u.)
 TolMaxD 4e-3 #TolMaxD 4e-3 Max. displacement (a.u.)
end
* xyz 0 1
 S 2.03950482830599 4.47473354573117 3.85234692388833
 O 0.30522726503160 3.51866859295865 -1.10917859588546
 O 0.23232533557998 1.09307481490227 0.00004179716284
 O -0.87173251073307 2.15685367599813 1.62502889426946
 N 1.90255128122681 4.82500027884314 -0.06553748662907
 N -0.16947389041633 4.82237379584476 0.73172735476583
 C 2.07589276067915 5.24001962092423 1.31525401195332
 C 0.61731859100396 5.44858961764890 1.78544725800136
 C 2.75357213547512 4.17357985887183 2.21178405409806
 C 0.39680420042719 4.80002494231425 3.15491694597926
 C 2.49807452106557 2.75642152183664 1.67835006101766
 C 2.65292439221093 1.62066743160100 2.69275952755620
 C 0.63990665482692 4.29387218019443 -0.23155996209579
 C 2.04748539815703 0.31370869573690 2.15962772781214
 C 0.50904851550184 0.27865951238713 2.20555537971347
 C -0.12459876634344 1.27679585414673 1.25840676528504
 H 2.64626222517381 6.17428207183701 1.36386941642153
 H 0.37564784382648 6.51879172272570 1.83059294698875
 H 3.82761587521564 4.36226239037526 2.28943043046023
 H -0.13630894615684 5.46693929267591 3.83212316403077
 H -0.16771572596951 3.87077825832158 3.05857916968000
 H 1.47929923040802 2.73311512482886 1.29870676468495
 H 3.16622076673821 2.57401181961821 0.83010572937050
 H 2.65221288611696 4.32301809684000 -0.51951105431080
 H -0.97462289435845 4.26417369364941 0.98670460903990
 H 3.71381996590912 1.45822335001866 2.90742328440575
 H 2.16412986493292 1.89709620071374 3.63284467757961
 H 2.37677989545519 0.14565980623680 1.12959936611676
 H 2.41912076859531 -0.51595994449017 2.76835529108448
 H 0.14718670144836 0.48106529381227 3.21588039739489
 H 0.17732591527836 -0.71940256351261 1.90741601679601
 H -0.01770608461335 1.88373944641847 -0.55168486663201
*



