%pal nprocs 16 end
%MaxCore 6000
# put your comments here
! B97-3C  OPT  FREQ DEFGRID3 NOTRAH
%scf MaxIter 800 end
%output
Print [P_Hirshfeld] 1
end
%geom
MaxIter 3000
 TolE 1e-6 #TolE 5e-6 Energy change (a.u.)
 TolRMSG 3e-5 #TolRMSG 1e-4 RMS gradient (a.u.)
 TolMaxG 1e-4 #TolMaxG 3e-3 Max. element of gradient (a.u.)
 TolRMSD 2e-3 #TolRMSD 2e-3 RMS displacement (a.u.)
 TolMaxD 4e-3 #TolMaxD 4e-3 Max. displacement (a.u.)
end
* xyz 1 1
 S 3.09340240855739 6.22658197131589 3.16860775236676
 O 3.25167331018371 6.22289596353861 0.70134816266860
 N 1.98552484781702 4.95782994921090 5.05433514746531
 N -1.57596320851538 5.38920990485354 8.14443758761087
 N -0.81609038480971 7.29023666282006 7.00263011337255
 N -0.45477662197572 3.40537793789735 8.18725634615243
 C 1.22213518773172 4.65721367417832 3.95164099453944
 C 1.65181876450763 4.51133419471031 6.39156619858535
 C 1.69226240217981 5.26209225313435 2.82347618851399
 C 1.18148137615472 5.19090520049139 1.42749788918813
 C 0.46118138685818 5.27915772839493 6.92124912278615
 C 2.98258261532090 5.78587951692874 4.79398517655186
 C 0.03871977975881 3.76762145938605 4.07620580275904
 C 2.36931620459517 5.15658116565203 0.44899719704289
 C -0.50718917589427 4.69465246690439 7.77005698274477
 C 0.23882642601985 6.60862581338250 6.59997608524770
 C -1.70545531241460 6.64610237068167 7.75290727335394
 C -2.90932916508993 7.39180572100526 8.19952301210031
 H 2.52753682856584 4.66373228805779 7.03017649122281
 H 1.42298565361957 3.44347843040236 6.35427482386328
 H 0.56720024379590 6.07280618353598 1.21959122811831
 H 0.56505385006110 4.30516570527897 1.28221291022718
 H 3.67291696705266 6.11260995834253 5.54886482311518
 H 0.33982744078016 2.76027509687798 4.36315966669602
 H -0.64482771070813 4.14694775733359 4.83445409755266
 H -0.49477095030020 3.70953419458005 3.13379974653730
 H 2.00639527052750 5.16604283114586 -0.58175260283755
 H 2.95068027156308 4.24436190609290 0.60618011573140
 H 0.93506929494877 7.16166735313442 5.97831960926766
 H 0.42646615090148 2.93233170410473 8.28356002988309
 H -1.16693073568245 3.15623623439635 8.85635322565245
 H 2.91306598367363 7.03889593161031 0.31301434997349
 H -2.67201196920711 7.92926234614541 9.11688713422797
 H -3.19514486271857 8.12134951632711 7.44792159309227
 H -3.72172656786028 6.70223360815078 8.40573872462725
*



