%pal nprocs 16 end
%MaxCore 6000
# put your comments here
! B97-3C  OPT  FREQ DEFGRID3 NOTRAH
%scf MaxIter 800 end
%output
Print [P_Hirshfeld] 1
end
%geom
MaxIter 3000
 TolE 1e-6 #TolE 5e-6 Energy change (a.u.)
 TolRMSG 3e-5 #TolRMSG 1e-4 RMS gradient (a.u.)
 TolMaxG 1e-4 #TolMaxG 3e-3 Max. element of gradient (a.u.)
 TolRMSD 2e-3 #TolRMSD 2e-3 RMS displacement (a.u.)
 TolMaxD 4e-3 #TolMaxD 4e-3 Max. displacement (a.u.)
end
* xyz 1 1
 S -2.97212344201653 5.16426329322016 -5.32262281492492
 O -0.77647673336565 6.25531000094192 -5.31641236510455
 N -4.45398727083812 3.69170053406439 -3.89883202868509
 N -5.01431074261254 -0.86269819841336 -2.69229231191257
 N -3.61317807026109 -0.31168429270281 -4.48925359300847
 N -6.45058651398702 0.60951417999741 -1.71068318667700
 C -3.36463882087820 3.95063417770353 -3.10120608726287
 C -5.51786104704673 2.78864592808757 -3.51099861388967
 C -2.44725416772996 4.74306578225741 -3.72649833503423
 C -1.15577878267883 5.26976130269977 -3.20523695557533
 C -5.03821983919602 1.35479930347885 -3.55423981254176
 C -4.37849092408785 4.25803547772918 -5.09047317428235
 C -3.29084940142493 3.39516334646492 -1.72526117479609
 C -0.14958224492147 5.44418805997917 -4.34460969447556
 C -5.52111193452276 0.36509863883810 -2.66678575806590
 C -4.08736680964741 0.91908508177730 -4.46277976574831
 C -4.08384684273666 -1.16368394138411 -3.58311762905955
 C -3.54798818038927 -2.54866423089770 -3.58574744133763
 H -6.35847172339249 2.93801853320750 -4.19592789939921
 H -5.83828552835693 3.04459220566327 -2.49779231380193
 H -0.74100693410272 4.60527275633811 -2.44824157940352
 H -1.33135682499446 6.24873744964169 -2.74928359762664
 H -5.14421022722224 4.13964607859847 -5.83394783248272
 H -4.07384892147410 3.81938260599012 -1.09713075689588
 H -3.41470380047444 2.31320553885474 -1.74016962217286
 H -2.33395035511515 3.62953154209572 -1.27173616272324
 H 0.11303933978568 4.46500090816369 -4.76697766958178
 H 0.75966528531526 5.92051753874419 -3.96365850291308
 H -3.67071636246009 1.58881548075045 -5.20753431233799
 H -7.13043083309744 1.33982219347136 -1.82842507039282
 H -6.75922931388651 -0.20958536034814 -1.21018717066314
 H -0.19945682319058 6.37700170965319 -6.07816303098229
 H -3.65849604166459 -2.99442180827718 -2.60232142286913
 H -4.11357129933910 -3.14526700076515 -4.30052465017798
 H -2.50873486799028 -2.54495781562375 -3.90012866319420
*



