%pal nprocs 16 end
%MaxCore 6000
# put your comments here
! B97-3C  OPT  FREQ DEFGRID3 NOTRAH
%scf MaxIter 800 end
%output
Print [P_Hirshfeld] 1
end
%geom
MaxIter 3000
 TolE 1e-6 #TolE 5e-6 Energy change (a.u.)
 TolRMSG 3e-5 #TolRMSG 1e-4 RMS gradient (a.u.)
 TolMaxG 1e-4 #TolMaxG 3e-3 Max. element of gradient (a.u.)
 TolRMSD 2e-3 #TolRMSD 2e-3 RMS displacement (a.u.)
 TolMaxD 4e-3 #TolMaxD 4e-3 Max. displacement (a.u.)
end
* xyz 1 1
 S -0.68369276459503 8.20721148584984 -2.64773039178188
 O -0.13578510725536 5.96422641637178 -3.47488713094648
 N -0.21242497225111 9.77561332874543 -0.72143245509852
 N -1.84250872012330 10.83341829592194 3.60598599934692
 N -3.15612549742332 9.52086453647279 2.17548248365156
 N 0.00757542957134 11.97989658339117 2.92823739907394
 C 0.44996833548032 8.61829874592993 -0.38811798308231
 C -0.29520641671506 10.91999427090048 0.16264066235357
 C 0.31142244558945 7.65393719992454 -1.34278963369537
 C 0.85733652422849 6.26828466090182 -1.35493516622480
 C -1.23124943482620 10.63252948249540 1.31554534835247
 C -0.85530297743079 9.69883169595029 -1.87363278560676
 C 1.20303493093516 8.52219302055063 0.88916796387562
 C 1.08767856742057 5.79272635882403 -2.79076363830527
 C -1.03141344434778 11.16877736779320 2.60831256138891
 C -2.34767386268679 9.82281431423246 1.17842713610343
 C -2.86223022014280 10.02457848473440 3.37088872950987
 C -3.73684874354282 9.65770492126400 4.51371633606214
 H -0.64916237111503 11.77606673674105 -0.42041269504296
 H 0.70637416662142 11.13969041443411 0.54079200914013
 H 0.12979759396383 5.59995331302363 -0.88447961468967
 H 1.79088810673443 6.21239258240435 -0.79632498006008
 H -1.42219045412881 10.51891163505613 -2.27262992479975
 H 2.04319967324338 9.21635566669211 0.89808304454213
 H 0.55558331467019 8.76219123334780 1.73136146796966
 H 1.58653343193483 7.51744100591604 1.02865629449064
 H 1.39090047552036 4.74072170266793 -2.78592662596231
 H 1.88167435668142 6.38818212622098 -3.26164825866957
 H -2.61189210354902 9.38379850199893 0.22230124736084
 H 0.42762353649573 12.57322022297487 2.23456526810354
 H -0.02927348731856 12.35132231319935 3.86504918947834
 H -0.04920536275541 5.69557537271166 -4.39590878522551
 H -3.58742294206177 10.35071210934135 5.33510112700229
 H -4.77537092562905 9.65115080955983 4.19521729714579
 H -3.48640708119408 8.65221508345576 4.84904450424303
*



