%pal nprocs 16 end
%MaxCore 6000
# put your comments here
! B97-3C  OPT  FREQ DEFGRID3 NOTRAH
%scf MaxIter 800 end
%output
Print [P_Hirshfeld] 1
end
%geom
MaxIter 3000
 TolE 1e-6 #TolE 5e-6 Energy change (a.u.)
 TolRMSG 3e-5 #TolRMSG 1e-4 RMS gradient (a.u.)
 TolMaxG 1e-4 #TolMaxG 3e-3 Max. element of gradient (a.u.)
 TolRMSD 2e-3 #TolRMSD 2e-3 RMS displacement (a.u.)
 TolMaxD 4e-3 #TolMaxD 4e-3 Max. displacement (a.u.)
end
* xyz 0 1
 O 8.48670562665325 0.53022515870076 2.22623093498017
 C -3.95123474570072 1.28957917763349 -1.84294510499414
 C -5.06415928462913 2.20786604291680 -1.30940929134256
 C -5.85574758591789 1.54025828978968 -0.18890224449486
 C -3.16443495081053 0.66215446436322 -0.69321098587026
 C -4.92837971764111 1.25616679831701 0.98986256766621
 C -3.62432639818830 0.62337481993499 0.56666834887904
 C -3.01020608281271 2.14309201876524 -2.71201083494118
 C -4.56202027273582 0.17391764083652 -2.71172849275882
 C -1.88141470632651 0.07109278765565 -1.09011355062800
 C -2.90050066587128 -0.07074520744796 1.69296895115849
 C -0.71543364858169 0.27780045797699 -0.44754973844104
 C 0.56774986283573 -0.27190265232760 -0.82929380762122
 C 0.60643124085675 -1.20647305093502 -2.00872094707984
 C 1.66781826292345 0.08078299970087 -0.11279269384189
 C 3.01971110970594 -0.34260754910683 -0.32916979475326
 C 4.04064400386142 0.08128600599933 0.45124534395398
 C 5.43273019401396 -0.29290500827254 0.30391340851452
 C 5.79540250154635 -1.24604578844274 -0.80734283142870
 C 6.34917109414427 0.21710115078390 1.14580249439787
 C 7.82976509036324 -0.06369313847995 1.12870165694467
 H -5.73393925529647 2.48054550489133 -2.13083432209303
 H -4.61593561692535 3.13115846882773 -0.92659197685289
 H -6.30154106242553 0.60617389373958 -0.54422726367660
 H -6.67009088596337 2.19599775325973 0.13295556885384
 H -5.43623721980311 0.60651807246647 1.71041515415369
 H -4.70211492204959 2.19494820342057 1.51163968065791
 H -2.51092205470143 2.89483009321421 -2.09995164177764
 H -2.24917210846898 1.52530709356183 -3.18834194362457
 H -3.58032171642670 2.65002440697998 -3.49160524674649
 H -5.17616002233554 0.60740897859009 -3.50214720415091
 H -3.77881248740477 -0.42470523194477 -3.17672177071650
 H -5.18366499913459 -0.48704953552124 -2.10800516836146
 H -1.89883570495389 -0.52240979508822 -1.99997099092533
 H -2.37576738188443 0.65678943200322 2.31605773589342
 H -2.17341365874821 -0.79120978796862 1.31845707259512
 H -3.61478729298797 -0.59760174953851 2.32885618288187
 H -0.70103567034839 0.93535075301284 0.41810684155780
 H 1.60285398305912 -1.60991326982050 -2.17831386754488
 H -0.07691236219107 -2.04290100019574 -1.84948490644916
 H 0.29248338656298 -0.68300763684112 -2.91441756016148
 H 1.52405677654298 0.76415837896459 0.72236428541545
 H 3.21614355033617 -1.02371980162471 -1.15064094936446
 H 3.82366820871955 0.76640408216761 1.26814296346144
 H 5.24458485058476 -2.18226454731315 -0.69921275228319
 H 6.86017659205469 -1.47405402394616 -0.81011228284491
 H 5.53775241793451 -0.81201146301923 -1.77524745849803
 H 6.03539372384603 0.90954515488991 1.92176594847814
 H 8.28868606694511 0.36530066244220 0.22723078693410
 H 8.01760270770060 -1.15245878896129 1.11109788614729
 H 8.09557723003084 0.22122928100488 3.05279681075291
*



