%pal nprocs 16 end
%MaxCore 6000
# put your comments here
! B97-3C  OPT  FREQ DEFGRID3 NOTRAH
%scf MaxIter 800 end
%output
Print [P_Hirshfeld] 1
end
%geom
MaxIter 3000
 TolE 1e-6 #TolE 5e-6 Energy change (a.u.)
 TolRMSG 3e-5 #TolRMSG 1e-4 RMS gradient (a.u.)
 TolMaxG 1e-4 #TolMaxG 3e-3 Max. element of gradient (a.u.)
 TolRMSD 2e-3 #TolRMSD 2e-3 RMS displacement (a.u.)
 TolMaxD 4e-3 #TolMaxD 4e-3 Max. displacement (a.u.)
end
* xyz 0 1
 O -0.14877511816058 -8.54859211087267 -2.80832291472445
 O -0.59284379692283 -8.48192661252320 -0.24200944937881
 O 1.27969531973440 -7.36247287181460 -4.01489129614886
 O 2.63248109209750 -5.22750390166528 0.65196918855961
 O 0.96349426778457 -3.79800159293880 1.02059544433264
 O 2.41275004512338 -5.90661642893828 3.15910846712017
 N 1.37967256451625 -7.46445136850211 -0.59350307586440
 N 2.44458461083924 -10.06886429100784 5.15166951831008
 N 1.62332173502562 -7.57133779027124 5.29870522357081
 N -0.46875728874437 -6.67082657729981 6.87439149064247
 N 0.65573258574508 -4.56501550916103 3.62560248816854
 N -0.77084155102245 -4.84966095402138 5.48048164248098
 N -1.09077568951534 -3.11506425778557 4.02695861761587
 C 0.91874975024526 -6.67245534778542 -1.72439727856528
 C 1.88471249837749 -5.52877695965731 -2.02779232305248
 C 1.59045894860156 -4.25169830097580 -1.24041316176264
 C 0.56126750995957 -8.25160259624222 0.13674950057729
 C 1.10254452483950 -8.79356685004067 1.39298112036853
 C 0.71440858351680 -7.57257357483164 -2.97725839206459
 C 1.98021316481991 -9.68614786792406 3.90725180457664
 C 1.66577702495201 -9.73747009698943 6.32678880367009
 C 0.19414666061752 -9.23833279586598 2.35550598912695
 C 2.46636462876763 -8.88445800094976 1.67884352801140
 C 0.61715158805748 -9.67635611797756 3.58860982002799
 C 2.89240725644352 -9.33436625262401 2.90565300469652
 C 1.69286798891223 -4.40869698505128 0.25915101281659
 C 1.13606650949498 -8.32168179397933 6.26419148985054
 C 1.04281905115561 -6.40213717239857 5.05301015962590
 C 0.11552455711599 -7.82249394814809 7.09357492277708
 C -0.07208713720233 -5.95976279536975 5.80719933375181
 C 1.46710654280234 -5.63825353494373 3.89162535182640
 C -0.41305883722696 -4.21026394797105 4.40757195390358
 H -0.08069686302000 -6.27635037159287 -1.47895328196605
 H 2.90654319397617 -5.85870051948364 -1.83474389710873
 H 1.81140518774026 -5.30921004143608 -3.09445237771154
 H 0.59362548661979 -3.87102312854919 -1.46934045860778
 H 2.31239495631256 -3.48228736680546 -1.52750595453681
 H 2.29563687476970 -7.24071920094973 -0.23694269868519
 H 2.29153703914684 -9.87706076287769 7.21186489543407
 H 0.81566967658742 -10.42362217555910 6.41548510450149
 H -0.85890660923917 -9.20655681100659 2.11828747505558
 H 3.20855668841515 -8.61295618554545 0.94263937594175
 H 3.42733814767436 -9.85675632681488 5.26060947728646
 H -0.11403937178229 -9.98696111675705 4.31904116367896
 H 3.95025046654398 -9.38072351239876 3.11984682834078
 H -0.23266081697932 -8.37771022151413 7.95527532326457
 H -0.50963273830658 -8.57806549740159 -1.86971743607903
 H 0.81507608716005 -4.08505031551198 2.72188670144459
 H 2.62953156825415 -5.40740270700397 1.65117306696545
 H -1.92677934668490 -2.88687312870378 4.53491966008972
 H -0.92156021775117 -2.70221440367550 3.12611404784432
*



