%pal nprocs 16 end
%MaxCore 6000
# put your comments here
! B97-3C  OPT  FREQ DEFGRID3 NOTRAH
%scf MaxIter 800 end
%output
Print [P_Hirshfeld] 1
end
%geom
MaxIter 3000
 TolE 1e-6 #TolE 5e-6 Energy change (a.u.)
 TolRMSG 3e-5 #TolRMSG 1e-4 RMS gradient (a.u.)
 TolMaxG 1e-4 #TolMaxG 3e-3 Max. element of gradient (a.u.)
 TolRMSD 2e-3 #TolRMSD 2e-3 RMS displacement (a.u.)
 TolMaxD 4e-3 #TolMaxD 4e-3 Max. displacement (a.u.)
end
* xyz 0 1
 O -2.18294007881006 -5.68506198522214 -7.82392396288729
 O -0.46680747876574 -3.96613191953641 -7.32598508710700
 O -3.92022431033255 -6.24234798398238 -6.58000465782174
 O -5.61792958376612 -4.32526856286768 -4.73700416920906
 O -3.88681281206611 -3.30167989405972 -3.78045484513586
 O -5.80618629676263 -2.18359685159869 -6.13590286603419
 N -1.85301011792587 -3.90069960203824 -5.55471597037311
 N -2.48804849670530 1.92984870643596 -8.07414620835741
 N -4.88714467750584 -0.16958416656935 -7.89403819442652
 N -4.26882105575383 -0.97594583087703 -10.49194228290800
 N -5.27887431212039 -3.72812528031466 -7.70971804870934
 N -4.59404307039494 -3.18922470606403 -9.89971594643390
 N -4.78699345822578 -5.37911893115941 -9.25132948691408
 C -1.94160072510675 -5.35918721256515 -5.46556799032064
 C -2.42741478807204 -5.79272027282754 -4.07468986697170
 C -3.93513772214383 -5.69655325185850 -3.78502113791356
 C -1.15248117470980 -3.29673297546982 -6.52990563577397
 C -1.32955781610366 -1.84503469634746 -6.69270048094169
 C -2.78916473263071 -5.82202415979689 -6.67269156039186
 C -2.01913988419192 0.73314733622725 -7.52571444325888
 C -3.95255746875512 2.01649882014751 -8.24510026331832
 C -2.27883219868016 -1.09896496405653 -5.98194768840722
 C -0.64509018804655 -1.22713666914840 -7.74886648208675
 C -2.61443880036042 0.17602548442485 -6.38927377992467
 C -0.97080685023549 0.05067649732318 -8.15258425608679
 C -4.48002123215972 -4.31467853934762 -4.08712272385014
 C -4.41827296201167 0.68672750261901 -8.78634817019510
 C -5.01333926980314 -1.45015286591409 -8.26943134643742
 C -4.15769802872484 0.27598396808886 -10.10510564928776
 C -4.63879356231319 -1.87688235081165 -9.55947978495842
 C -5.41528070716625 -2.42941458223943 -7.27217835858724
 C -4.86311915209163 -4.06310038962551 -8.97363819736556
 H -0.92623572698695 -5.75522685855338 -5.61498325852548
 H -2.12341156042481 -6.83276828961708 -3.92710499159525
 H -1.89158503001907 -5.18264988573998 -3.34083318685062
 H -4.08293057480704 -5.88298670292249 -2.71735700486207
 H -4.50015281165590 -6.44386901494449 -4.34136842042609
 H -2.45030334650761 -3.37323299494862 -4.93094347790680
 H -4.15347911641357 2.84559995010726 -8.92692546982535
 H -4.42403125337713 2.21583344264522 -7.28043782919787
 H -2.80668916569267 -1.52319939309704 -5.13587121179761
 H 0.10978678623699 -1.79217906529977 -8.28436447923684
 H -2.02306796846190 2.12316639002960 -8.95736944359764
 H -3.39264262148501 0.71518765758185 -5.86433254012591
 H -0.46781470119119 0.50010345334831 -9.00197807534922
 H -3.83218403536400 0.99616973627447 -10.85083470379717
 H -1.33900809693566 -5.08542801452113 -7.73224429780397
 H -5.44907892233889 -4.47224703005759 -7.04108571109776
 H -5.81929564091188 -3.39201812372910 -5.09052578723230
 H -4.65688385492596 -6.00861393547558 -8.47087630740995
 H -4.25866234658793 -5.59589599183158 -10.08095526080876
*



