%pal nprocs 16 end
%MaxCore 6000
# put your comments here
! B97-3C  OPT  FREQ DEFGRID3 NOTRAH
%scf MaxIter 800 end
%output
Print [P_Hirshfeld] 1
end
%geom
MaxIter 3000
 TolE 1e-6 #TolE 5e-6 Energy change (a.u.)
 TolRMSG 3e-5 #TolRMSG 1e-4 RMS gradient (a.u.)
 TolMaxG 1e-4 #TolMaxG 3e-3 Max. element of gradient (a.u.)
 TolRMSD 2e-3 #TolRMSD 2e-3 RMS displacement (a.u.)
 TolMaxD 4e-3 #TolMaxD 4e-3 Max. displacement (a.u.)
end
* xyz 1 1
 S       0.18509077      -1.17509170       2.82177542
 O       1.83039588      -3.04403819      -0.49204356
 N       0.71902616       0.60648831       1.13496640
 N      -2.96935518       1.77147751      -0.79200984
 N      -1.62226949       1.00624341      -2.56848445
 N      -2.09723921       2.51344027       1.23710943
 C       1.68267921      -0.37888878       0.91809789
 C       0.59243208       1.84251374       0.32655462
 C       1.53047312      -1.42396771       1.76206056
 C       2.32767779      -2.68265838       1.79351766
 C      -0.60624523       1.73846087      -0.53645865
 C      -0.12652188       0.31326514       2.09502922
 C       2.72470543      -0.20393818      -0.12593678
 C       1.80528176      -3.66955564       0.76616292
 C      -1.89678925       2.02371148      -0.05367662
 C      -0.54671930       1.23479817      -1.82974061
 C      -2.81827861       1.27231750      -2.02214051
 C      -4.04942284       1.02066183      -2.84001413
 H       1.50565554       1.93553858      -0.25232771
 H       0.53875386       2.67244590       1.03069777
 H       2.29999704      -3.12594466       2.79424645
 H       3.36803865      -2.44937639       1.56652873
 H      -0.94168648       0.97693679       2.34604410
 H       2.27320734      -0.13799447      -1.11448843
 H       3.30830990       0.69998371       0.05935604
 H       3.38725599      -1.06051228      -0.11595909
 H       0.78453125      -3.97787075       1.03143561
 H       2.42956671      -4.57458234       0.78607774
 H       0.41796304       1.00088303      -2.27997020
 H      -3.07382245       2.73639317       1.38718231
 H      -1.49727463       3.28791990       1.49115888
 H       1.57815649      -3.67256708      -1.17845363
 H      -4.90473509       0.84874931      -2.18861721
 H      -4.24920147       1.90308978      -3.45408797
 H      -3.88963691       0.17166815      -3.50359234
*



