%pal nprocs 16 end
%MaxCore 6000
# put your comments here
! B97-3C  OPT  FREQ DEFGRID3 NOTRAH
%scf MaxIter 800 end
%output
Print [P_Hirshfeld] 1
end
%geom
MaxIter 3000
 TolE 1e-6 #TolE 5e-6 Energy change (a.u.)
 TolRMSG 3e-5 #TolRMSG 1e-4 RMS gradient (a.u.)
 TolMaxG 1e-4 #TolMaxG 3e-3 Max. element of gradient (a.u.)
 TolRMSD 2e-3 #TolRMSD 2e-3 RMS displacement (a.u.)
 TolMaxD 4e-3 #TolMaxD 4e-3 Max. displacement (a.u.)
end
* xyz 1 1
 S       2.26117007       0.57822010       0.78955883
 O       3.94403166       1.50012663       2.70302791
 N      -0.19928114       0.09551518       0.57429361
 N      -0.81284192      -1.53540776      -3.40462251
 N      -1.96209752       0.51031075      -3.64488954
 N      -0.25539222      -2.42732608      -1.34101553
 C       0.01844935       0.23054460       1.95110097
 C      -1.53975603      -0.18387363       0.00405831
 C       1.31346399       0.49323835       2.24002098
 C       1.93090028       0.64620900       3.59102549
 C      -1.49364366      -0.33828701      -1.46230209
 C       0.89040198       0.25091416      -0.13616199
 C      -1.12192508       0.07064675       2.89545319
 C       2.93404356       1.77691263       3.64598203
 C      -0.88254665      -1.45111709      -2.07785619
 C      -2.02429045       0.61357696      -2.32767632
 C      -1.35163068      -0.57407763      -4.15435630
 C      -1.28446960      -0.71186059      -5.64572342
 H      -2.18506269       0.64804295       0.28903296
 H      -1.89628574      -1.08067941       0.51501678
 H       2.44697563      -0.28266108       3.85091287
 H       1.14295854       0.80282179       4.33122310
 H       0.88468991       0.18867912      -1.21044268
 H      -1.91429938       0.78476581       2.66638838
 H      -1.53677669      -0.93690056       2.83176795
 H      -0.78576869       0.23931882       3.91420622
 H       3.33686671       1.85043692       4.66520855
 H       2.44444223       2.73386069       3.42061626
 H      -2.51553909       1.50040791      -1.92430227
 H      -0.63597929      -2.64836427      -0.43572587
 H       0.02385402      -3.22958623      -1.88701788
 H       4.68111344       2.11292499       2.80724792
 H      -0.56348812      -1.47861498      -5.92218211
 H      -2.27237762      -0.99504264      -6.01810398
 H      -1.01990912       0.24632488      -6.09376362
*



