%pal nprocs 16 end
%MaxCore 6000
# put your comments here
! B97-3C  OPT  FREQ DEFGRID3 NOTRAH
%scf MaxIter 800 end
%output
Print [P_Hirshfeld] 1
end
%geom
MaxIter 3000
 TolE 1e-6 #TolE 5e-6 Energy change (a.u.)
 TolRMSG 3e-5 #TolRMSG 1e-4 RMS gradient (a.u.)
 TolMaxG 1e-4 #TolMaxG 3e-3 Max. element of gradient (a.u.)
 TolRMSD 2e-3 #TolRMSD 2e-3 RMS displacement (a.u.)
 TolMaxD 4e-3 #TolMaxD 4e-3 Max. displacement (a.u.)
end
* xyz 0 1
 O      -3.39472188      -0.49278423       0.16944501
 O      -1.77523117      -2.05514987       1.32246227
 O      -3.62964567       1.69594823       0.39611591
 O      -0.06262427       2.50372900       1.72112628
 O      -1.38763728       3.48016853       0.23654230
 O       1.24205032       1.75089620      -0.27188426
 N      -1.18684247       0.04930781       1.85813788
 N       4.30141378      -1.87485004      -0.55138949
 N       2.38001820      -0.31797321      -1.79021114
 N       0.72218474      -1.61964315      -3.56081991
 N      -0.72314160       1.42533924      -1.32771581
 N      -1.06924568      -0.24554311      -2.94198397
 N      -2.81378256       1.15177639      -2.28144158
 C      -2.52923690       0.47160421       2.14697079
 C      -2.51828751       1.69196403       3.04247422
 C      -2.26525430       3.04680385       2.40679894
 C      -0.89275032      -1.21646701       1.48135945
 C       0.53460844      -1.49220005       1.18370567
 C      -3.26162176       0.62967235       0.82106985
 C       3.10380605      -1.86392775       0.17850742
 C       4.13323680      -1.96001568      -2.00339154
 C       0.82121418      -2.58252905       0.36938383
 C       1.57736403      -0.66903413       1.59651609
 C       2.09419267      -2.78252823      -0.10959881
 C       2.84969364      -0.85770443       1.10948724
 C      -1.20133085       3.05335671       1.35189005
 C       2.81798500      -1.36124294      -2.44370392
 C       1.11816613       0.07269358      -1.95462345
 C       1.96032863      -1.99891822      -3.37013246
 C       0.24183162      -0.58989338      -2.82722004
 C       0.60007343       1.15058137      -1.11753845
 C      -1.52453852       0.73258478      -2.20640892
 H      -3.02901603      -0.34719959       2.67760041
 H      -3.48350790       1.75312446       3.55549942
 H      -1.76449215       1.49734590       3.80806223
 H      -1.96331777       3.74894600       3.19206077
 H      -3.16364390       3.42781919       1.93012983
 H      -0.47532544       0.75842578       1.84737411
 H       4.16415712      -3.00568932      -2.33093780
 H       4.98535527      -1.45310289      -2.47033374
 H       0.01599635      -3.24678709       0.08093342
 H       1.40031387       0.15807718       2.26995695
 H       4.86118651      -1.07042902      -0.30095091
 H       2.30342868      -3.60539764      -0.77614569
 H       3.63192659      -0.15583297       1.36509245
 H       2.32014690      -2.85009268      -3.94781882
 H      -2.88820577      -1.22523733       0.60790766
 H      -1.09063929       2.24578333      -0.84403898
 H       0.53646878       2.37023130       0.92319833
 H      -3.40972943       0.50313287      -2.77418121
 H      -3.21337731       1.57086073      -1.44733789
*



