%pal nprocs 16 end
%MaxCore 6000
# put your comments here
! B97-3C  OPT  FREQ DEFGRID3 NOTRAH
%scf MaxIter 800 end
%output
Print [P_Hirshfeld] 1
end
%geom
MaxIter 3000
 TolE 1e-6 #TolE 5e-6 Energy change (a.u.)
 TolRMSG 3e-5 #TolRMSG 1e-4 RMS gradient (a.u.)
 TolMaxG 1e-4 #TolMaxG 3e-3 Max. element of gradient (a.u.)
 TolRMSD 2e-3 #TolRMSD 2e-3 RMS displacement (a.u.)
 TolMaxD 4e-3 #TolMaxD 4e-3 Max. displacement (a.u.)
end
* xyz 0 1
 O      -3.39992174       0.55684448      -1.05775717
 O      -2.77989251      -0.91121011       0.89266366
 O      -2.71689489       2.62756952      -1.43408274
 O       0.27492800       2.97569690       0.99878300
 O      -0.09464338       3.69315132      -1.06664570
 O       1.86207875       1.42671638      -0.11218572
 N      -1.57243431       0.97007627       1.10513982
 N       2.95927234      -3.56706688       1.49430609
 N       2.75147059      -1.18337915      -0.48257736
 N       1.44702530      -2.70667902      -2.37100055
 N       0.31104892       1.12850693      -1.72546547
 N       0.00504016      -0.91619616      -2.84863319
 N      -1.38113714       0.90464549      -3.28689099
 C      -2.71190270       1.80704201       0.82655115
 C      -2.53909454       3.19703022       1.39848410
 C      -1.70831323       4.19416752       0.61631077
 C      -1.70224414      -0.37500774       1.13888351
 C      -0.48371238      -1.18437508       1.40812077
 C      -2.96288266       1.72594468      -0.67374128
 C       1.77039460      -2.80828104       1.60571495
 C       3.88432396      -3.04490518       0.46633596
 C       0.68709109      -0.69036684       1.97099575
 C      -0.53715541      -2.51646833       1.01379404
 C       1.79999183      -1.49989225       2.07590450
 C       0.57140690      -3.32323418       1.11412214
 C      -0.42814711       3.62227238       0.09258677
 C       3.07713747      -2.43943386      -0.64493074
 C       1.77585917      -0.66407002      -1.22557893
 C       2.41418289      -3.19724756      -1.63832794
 C       1.06636160      -1.42365439      -2.16427021
 C       1.36234559       0.70699718      -0.95987201
 C      -0.35010084       0.32203832      -2.62521913
 H      -3.57831895       1.34413638       1.31039843
 H      -3.53405723       3.63491347       1.53184785
 H      -2.11399112       3.06547475       2.39517539
 H      -1.45873917       5.03278456       1.27580907
 H      -2.25194791       4.57805343      -0.24143781
 H      -0.67658922       1.41182201       1.21628877
 H       4.52537095      -3.86862245       0.13676777
 H       4.50878919      -2.25985521       0.89505401
 H       0.75416493       0.33385851       2.31186225
 H      -1.45483976      -2.89752437       0.58528015
 H       2.72524262      -4.53066997       1.28797689
 H       2.72568279      -1.10286939       2.46663341
 H       0.53269456      -4.34114481       0.74855630
 H       2.69420627      -4.23711824      -1.80472047
 H      -3.33117135      -0.10225062      -0.31923154
 H       0.06941332       2.11703963      -1.64301399
 H       1.03690947       2.48946935       0.55659242
 H      -1.85623695       1.67902304      -2.83467606
 H      -1.96806459       0.24624814      -3.77668069
*



