%pal nprocs 16 end
%MaxCore 6000
# put your comments here
! B97-3C  OPT  FREQ DEFGRID3 NOTRAH
%scf MaxIter 800 end
%output
Print [P_Hirshfeld] 1
end
%geom
MaxIter 3000
 TolE 1e-6 #TolE 5e-6 Energy change (a.u.)
 TolRMSG 3e-5 #TolRMSG 1e-4 RMS gradient (a.u.)
 TolMaxG 1e-4 #TolMaxG 3e-3 Max. element of gradient (a.u.)
 TolRMSD 2e-3 #TolRMSD 2e-3 RMS displacement (a.u.)
 TolMaxD 4e-3 #TolMaxD 4e-3 Max. displacement (a.u.)
end
* xyz 0 1
 S      -3.12121270      -0.87663250       1.12599754
 O       2.35793177       0.29710495       1.79577868
 O       2.56013046       1.32485859      -0.56908061
 O       2.38219324      -0.76334030      -1.33789041
 N       0.75899067      -1.03626862       0.80583011
 N       0.29854033      -0.13045280       2.75359011
 C      -0.56995152      -1.48530805       1.07000020
 C      -0.85533858      -0.93496595       2.46915246
 C      -1.62832317      -0.97868510       0.09913952
 C      -2.14369401      -0.14154990       2.44425703
 C      -1.25893950       0.33415413      -0.55868837
 C      -0.57460346       0.12555784      -1.90323251
 C       1.26685706      -0.24295470       1.78845224
 C       0.19446545       1.35314791      -2.40083032
 C       1.65438712       1.03759867      -2.72116609
 C       2.27544015       0.43669168      -1.49065831
 H      -0.61030643      -2.58090925       1.07419440
 H      -0.94747966      -1.75394068       3.19215460
 H      -1.83617410      -1.72314752      -0.67098022
 H      -2.68479676      -0.17517612       3.38962611
 H      -1.92674783       0.89588472       2.21097764
 H      -2.15119342       0.94430795      -0.70998763
 H      -0.61352260       0.89544042       0.10740850
 H       1.34434780      -1.26700482       0.01151654
 H       0.52209893       0.26311763       3.64971779
 H       0.10786652      -0.71405277      -1.82803616
 H      -1.32617085      -0.17269178      -2.64064136
 H      -0.28115241       1.77327640      -3.29365008
 H       0.17950442       2.13864814      -1.64431726
 H       2.19283116       1.94770756      -2.99714190
 H       1.73377529       0.31449509      -3.53426726
 H       2.70024662       0.89508916       0.31277501
*



