%pal nprocs 16 end
%MaxCore 6000
# put your comments here
! B97-3C  OPT  FREQ DEFGRID3 NOTRAH
%scf MaxIter 800 end
%output
Print [P_Hirshfeld] 1
end
%geom
MaxIter 3000
 TolE 1e-6 #TolE 5e-6 Energy change (a.u.)
 TolRMSG 3e-5 #TolRMSG 1e-4 RMS gradient (a.u.)
 TolMaxG 1e-4 #TolMaxG 3e-3 Max. element of gradient (a.u.)
 TolRMSD 2e-3 #TolRMSD 2e-3 RMS displacement (a.u.)
 TolMaxD 4e-3 #TolMaxD 4e-3 Max. displacement (a.u.)
end
* xyz 0 1
 S      -2.63607740      -1.78592983       0.57858188
 O       2.24346669       0.46391761       1.95521585
 O       2.00263539       1.92266890      -0.17869014
 O       2.19147160       0.04357478      -1.37295178
 N       1.23324523      -1.24891286       0.78753750
 N       0.33185512      -0.60694718       2.68982904
 C      -0.04786537      -1.88529720       0.80438514
 C      -0.55240467      -1.63729117       2.22144297
 C      -1.05774558      -1.32323872      -0.18275295
 C      -2.00927491      -1.21572068       2.17175230
 C      -0.92434749       0.16664564      -0.43309485
 C      -0.87649831       0.52634810      -1.91008144
 C       1.37644533      -0.38280048       1.83266852
 C      -0.32859958       1.92968631      -2.16160038
 C       1.18256272       1.94932559      -2.38360244
 C       1.87496451       1.21056295      -1.27315774
 H       0.05399716      -2.95766348       0.60424894
 H      -0.45099744      -2.54130371       2.83436110
 H      -0.98700942      -1.86117897      -1.12791487
 H      -2.60499859      -1.63465138       2.98268404
 H      -2.07395861      -0.13334999       2.22620461
 H      -1.74115832       0.70978621       0.03798846
 H      -0.03080886       0.52915926       0.04569054
 H       1.76251369      -1.05735746      -0.05848333
 H       0.31067704      -0.18039705       3.59765105
 H      -0.25624508      -0.19184901      -2.44656432
 H      -1.88532279       0.43772583      -2.32718242
 H      -0.80148967       2.36503353      -3.05011885
 H      -0.57596020       2.58310981      -1.32219087
 H       1.55065587       2.97772064      -2.41799151
 H       1.43730115       1.45160442      -3.32081797
 H       2.28897082       1.37701960       0.59695391
*



