%pal nprocs 16 end
%MaxCore 6000
# put your comments here
! B97-3C  OPT  FREQ DEFGRID3 NOTRAH
%scf MaxIter 800 end
%output
Print [P_Hirshfeld] 1
end
%geom
MaxIter 3000
 TolE 1e-6 #TolE 5e-6 Energy change (a.u.)
 TolRMSG 3e-5 #TolRMSG 1e-4 RMS gradient (a.u.)
 TolMaxG 1e-4 #TolMaxG 3e-3 Max. element of gradient (a.u.)
 TolRMSD 2e-3 #TolRMSD 2e-3 RMS displacement (a.u.)
 TolMaxD 4e-3 #TolMaxD 4e-3 Max. displacement (a.u.)
end
* xyz 0 1
 S      -2.59730058       1.42887490       0.72691946
 O       0.52971588      -3.00915850      -0.17187507
 O       2.49993107      -1.25629439      -0.19338416
 O       1.67748460      -0.37821415      -2.07688951
 N      -0.67101586      -1.35358907      -1.23150519
 N      -1.46072065      -2.15924653       0.66153178
 C      -1.67517588      -0.42577159      -0.81727233
 C      -2.44536347      -1.19980611       0.23548828
 C      -1.14124683       0.83517041      -0.16851514
 C      -2.90964528      -0.24983344       1.32767250
 C       0.03493092       0.62225980       0.75237211
 C       0.97406411       1.81117254       0.85480070
 C      -0.43527123      -2.27326928      -0.24939692
 C       1.83991799       2.06411297      -0.37355069
 C       2.93050591       1.02579891      -0.61598378
 C       2.32582376      -0.27980786      -1.05756500
 H      -2.30993335      -0.13484381      -1.66027084
 H      -3.31095888      -1.70911598      -0.20611048
 H      -0.89118352       1.56993564      -0.93199853
 H      -3.97011171      -0.35619594       1.55806371
 H      -2.34840366      -0.43671793       2.23852752
 H      -0.32411951       0.36739819       1.74530664
 H       0.60482538      -0.23098569       0.43365590
 H       0.09482741      -1.10374829      -1.84902265
 H      -1.62602806      -2.89823823       1.32111594
 H       0.38882537       2.71255980       1.06618794
 H       1.62938233       1.65478873       1.71843097
 H       1.22312642       2.12492550      -1.27158255
 H       2.32588064       3.04114102      -0.25869496
 H       3.53042830       0.85684955       0.27797938
 H       3.59152212       1.37184021      -1.41677328
 H       1.91528625      -2.03199138      -0.36766174
*



