%pal nprocs 16 end
%MaxCore 6000
# put your comments here
! B97-3C  OPT  FREQ DEFGRID3 NOTRAH
%scf MaxIter 800 end
%output
Print [P_Hirshfeld] 1
end
%geom
MaxIter 3000
 TolE 1e-6 #TolE 5e-6 Energy change (a.u.)
 TolRMSG 3e-5 #TolRMSG 1e-4 RMS gradient (a.u.)
 TolMaxG 1e-4 #TolMaxG 3e-3 Max. element of gradient (a.u.)
 TolRMSD 2e-3 #TolRMSD 2e-3 RMS displacement (a.u.)
 TolMaxD 4e-3 #TolMaxD 4e-3 Max. displacement (a.u.)
end
* xyz 0 1
 O -1.37789081915676 0.03132754078661 1.98073966013677
 O -1.46348204578846 2.45545758239095 0.83715586105977
 O 1.44020219292221 2.18979222280786 -2.06091836989842
 N 1.21788717970850 -1.78087254996372 0.30358305845202
 C -0.28845657137144 0.52003799806203 -0.12043766305755
 C 0.66915670053410 0.10827569938377 -1.05460061563208
 C -0.47283949504294 -0.26295278321948 1.02133946899866
 C 0.31276972325690 -1.41938549304448 1.19042040831760
 C -1.13535769427579 1.75330573692097 -0.35486519314040
 C 0.94010781714795 0.89007479872488 -2.31643454108521
 C 1.39177971428590 -1.04229615899558 -0.77936803820461
 C 0.12596233347386 -2.27446060898345 2.40009033989471
 H -0.63713879903860 2.42483318946012 -1.05779286690620
 H -2.09828914602747 1.45237177491616 -0.78470983458614
 H 1.64281690828715 0.32824125455654 -2.94547703538594
 H 0.01648431188977 1.03775542027597 -2.88308990203726
 H 2.14804476641967 -1.39875578765583 -1.46675289387578
 H -0.89394524475774 -2.65344700471912 2.43058591723552
 H 0.82650148863264 -3.10258393777710 2.37127546266871
 H 0.28275173176494 -1.68452945018849 3.30131657209478
 H -1.77560913980472 0.89944852079353 1.77925013506441
 H -0.67121090436158 2.89567062040194 1.16363874861750
 H 2.28734599130183 2.10695241506616 -1.60948667873081
*



