%pal nprocs 16 end
%MaxCore 6000
# put your comments here
! B97-3C  OPT  FREQ DEFGRID3 NOTRAH
%scf MaxIter 800 end
%output
Print [P_Hirshfeld] 1
end
%geom
MaxIter 3000
 TolE 1e-6 #TolE 5e-6 Energy change (a.u.)
 TolRMSG 3e-5 #TolRMSG 1e-4 RMS gradient (a.u.)
 TolMaxG 1e-4 #TolMaxG 3e-3 Max. element of gradient (a.u.)
 TolRMSD 2e-3 #TolRMSD 2e-3 RMS displacement (a.u.)
 TolMaxD 4e-3 #TolMaxD 4e-3 Max. displacement (a.u.)
end
* xyz 0 1
 O 2.95980962564206 -1.24656617377100 -0.23269946834512
 O 2.31382459152563 -1.40342257544404 -2.83066559910004
 O -1.58721898277304 -0.10567273547712 -2.87075390891799
 N 0.06802379559360 0.03835976548096 1.44705295526403
 C 0.68000737464130 -1.09399574771472 -1.02000560194600
 C -0.63088474576615 -0.71157591931810 -0.71252691073880
 C 1.66604498836649 -0.90183496070649 -0.04968172878287
 C 1.30675380264568 -0.32618181633767 1.18427301020520
 C 1.01944640283194 -1.73897749023849 -2.34738125963883
 C -1.76202987859662 -0.87822805619178 -1.69718699424880
 C -0.86732410108434 -0.14554029815408 0.53063634778802
 C 2.34414218181562 -0.11936061762401 2.23802815617063
 H 1.03255505515137 -2.82867071257377 -2.22522919384175
 H 0.26481624522953 -1.48342586301963 -3.09468116704451
 H -1.82679640171301 -1.91583340623351 -2.03650994759196
 H -2.70899862704198 -0.61749683892576 -1.20687694740252
 H -1.86231243955430 0.17278767056248 0.81376832902743
 H 3.15044718247636 0.50079187160761 1.85064861556764
 H 1.89321401687278 0.35476376180481 3.10361829553399
 H 2.77621584796033 -1.07665799710865 2.52384773445348
 H 3.07728257451909 -1.53985998345901 -1.15606208125627
 H 2.30473918170316 -0.48621385559141 -3.12512689962942
 H -1.58102569044564 0.82570197843335 -2.62421073552560
*



