%pal nprocs 16 end
%MaxCore 6000
# put your comments here
! B97-3C  OPT  FREQ DEFGRID3 NOTRAH
%scf MaxIter 800 end
%output
Print [P_Hirshfeld] 1
end
%geom
MaxIter 3000
 TolE 1e-6 #TolE 5e-6 Energy change (a.u.)
 TolRMSG 3e-5 #TolRMSG 1e-4 RMS gradient (a.u.)
 TolMaxG 1e-4 #TolMaxG 3e-3 Max. element of gradient (a.u.)
 TolRMSD 2e-3 #TolRMSD 2e-3 RMS displacement (a.u.)
 TolMaxD 4e-3 #TolMaxD 4e-3 Max. displacement (a.u.)
end
* xyz 0 1
 O -0.18411732746085 -0.31233486685139 -6.13964686716768
 O -1.18624686215547 -2.64078688061681 -5.18640127326377
 O -1.81368551056774 0.32940651187479 -3.04773462968433
 O -4.76055302888098 -0.47733197278689 -2.82871757507115
 O -3.70536351620870 -1.86282668548909 -4.21903805644171
 N -2.23798737267738 0.89302757864891 -5.18761648596606
 C 0.48875458276183 -1.30226849484450 -3.99680330773011
 C -0.09758621347390 -0.08390134701288 -4.75081195661132
 C -0.57202037547448 -2.41868977132467 -3.92510274564286
 C 0.89844363214382 -0.89991128479279 -2.58022806902912
 C 1.71779723788143 -1.81236918308199 -4.75662573893286
 C -1.46535013473231 0.37435598946363 -4.21287560931022
 C -3.58194797682587 1.34324225437184 -4.95283757330786
 C -4.60761087274522 0.19741112230722 -5.07657877206881
 C -4.30196471834654 -0.83284127101726 -4.01893159388812
 H 0.58256563693831 0.76996950991144 -4.62194536687903
 H -1.32347662845739 -2.14874205612307 -3.18102571237039
 H -0.08979081431454 -3.35106641732281 -3.60436107127720
 H 1.71732014743997 -0.18500922094633 -2.61521553718521
 H 1.22779794472715 -1.77611628817962 -2.02623799459441
 H 0.06209345726823 -0.44758278200524 -2.05633966084393
 H 2.21963639687381 -2.57692825892789 -4.16849576754129
 H 2.41522984305933 -0.99857021924957 -4.94104555618237
 H 1.43169726963331 -2.24552726425418 -5.71106835919419
 H -1.88776404031979 0.79361299442991 -6.13247921909684
 H -0.53175774204607 -1.22120772533824 -6.22381659653296
 H -3.62280742435613 1.74517590331804 -3.93627671081110
 H -3.82494356470419 2.13007814586581 -5.66921929527785
 H -2.14277087432997 -2.56238590398068 -5.06479667044591
 H -4.53949778875737 -0.26407344036365 -6.06201709369876
 H -5.60753997233159 0.59563797663309 -4.91180286808155
 H -4.44882838956076 -1.08138765231525 -2.13654826587106
*



