%pal nprocs 16 end
%MaxCore 6000
# put your comments here
! B97-3C  OPT  FREQ DEFGRID3 NOTRAH
%scf MaxIter 800 end
%output
Print [P_Hirshfeld] 1
end
%geom
MaxIter 3000
 TolE 1e-6 #TolE 5e-6 Energy change (a.u.)
 TolRMSG 3e-5 #TolRMSG 1e-4 RMS gradient (a.u.)
 TolMaxG 1e-4 #TolMaxG 3e-3 Max. element of gradient (a.u.)
 TolRMSD 2e-3 #TolRMSD 2e-3 RMS displacement (a.u.)
 TolMaxD 4e-3 #TolMaxD 4e-3 Max. displacement (a.u.)
end
* xyz 0 1
 O -2.29178204660826 -0.14945115350415 -2.23610768081580
 O -1.90003015159150 1.70994140367793 -0.08603966789892
 O 1.10017743967719 0.77583031469823 -1.57989940439181
 O -3.88595780850738 -0.09128005524306 0.05997441971760
 O -0.18790932979748 2.08040432596299 -4.07537604070653
 O -2.91947013184789 1.00278862088045 -4.09292821864926
 C -1.14908805844963 -0.20008160870325 -1.38459188498275
 C -1.51299860557523 0.37169256820884 0.01943454226892
 C -0.13701430340352 0.65752387903597 -2.09326686296883
 C -2.66235323632528 -0.43937988449002 0.65713191467294
 C -0.71721110423851 1.21860108400003 -3.16419277600323
 C -2.09340949208351 0.72701695958833 -3.26794502547229
 H -0.82669294345916 -1.24551449380908 -1.28803610496845
 H -0.60540409310111 0.31765424001451 0.63689063882256
 H -2.45938871799771 -1.51936494199479 0.57684180012828
 H -2.73978056294679 -0.17306277056861 1.71709768522328
 H -2.86110270285052 1.72782015590619 -0.24302949598575
 H 1.60927206124176 1.43151973415979 -2.08052435993386
 H -3.85895476683726 -0.29706799801497 -0.88899341260360
 H -0.87884944529823 2.30005962019466 -4.72178606545258
*



