%pal nprocs 16 end
%MaxCore 6000
# put your comments here
! B97-3C  OPT  FREQ DEFGRID3 NOTRAH
%scf MaxIter 800 end
%output
Print [P_Hirshfeld] 1
end
%geom
MaxIter 3000
 TolE 1e-6 #TolE 5e-6 Energy change (a.u.)
 TolRMSG 3e-5 #TolRMSG 1e-4 RMS gradient (a.u.)
 TolMaxG 1e-4 #TolMaxG 3e-3 Max. element of gradient (a.u.)
 TolRMSD 2e-3 #TolRMSD 2e-3 RMS displacement (a.u.)
 TolMaxD 4e-3 #TolMaxD 4e-3 Max. displacement (a.u.)
end
* xyz 0 1
 O 2.18885292259663 -1.48608213227278 1.85620180049198
 O 4.07386023963072 -0.93299572203696 0.05917394144332
 O 1.82779329327622 2.00143760022663 -2.05376102599450
 N -0.97902591178336 -0.93627688747558 0.28976759678622
 C 1.70802566858574 -0.34358028271427 -0.22337231748543
 C 0.69046741101443 0.07720323672852 -1.09122897727899
 C 1.31816253613575 -1.04788384633976 0.91635908912154
 C -0.03992697709368 -1.32892069785819 1.13486650976384
 C 3.16162554376694 -0.00071649064683 -0.50057579461882
 C 1.00034141593086 0.88909929946488 -2.33427790800950
 C -0.62581870849819 -0.24380216758759 -0.79098085832697
 C -0.46143942555085 -2.08760489672984 2.35803249375839
 H 3.33259190342820 0.08079705304231 -1.58286275553793
 H 3.39756227496078 0.97261395882301 -0.05258929588520
 H 1.54553814461454 0.27397288699709 -3.06238493043489
 H 0.05913088819980 1.21619650237894 -2.80509912072680
 H -1.43241631215381 0.06623949559979 -1.44929250086711
 H -0.17749064928438 -1.53799735293198 3.25704721187925
 H -1.53994341411947 -2.23557948577233 2.35061387257577
 H 0.03898193635464 -3.05672773760570 2.39076004354325
 H 3.10527110319135 -1.28621996650827 1.57509917522015
 H 3.99991367737084 -1.77735047379702 -0.40373853084089
 H 1.38791343942618 2.58328510701595 -1.42086871857679
*



