%pal nprocs 16 end
%MaxCore 6000
# put your comments here
! B97-3C  OPT  FREQ DEFGRID3 NOTRAH
%scf MaxIter 800 end
%output
Print [P_Hirshfeld] 1
end
%geom
MaxIter 3000
 TolE 1e-6 #TolE 5e-6 Energy change (a.u.)
 TolRMSG 3e-5 #TolRMSG 1e-4 RMS gradient (a.u.)
 TolMaxG 1e-4 #TolMaxG 3e-3 Max. element of gradient (a.u.)
 TolRMSD 2e-3 #TolRMSD 2e-3 RMS displacement (a.u.)
 TolMaxD 4e-3 #TolMaxD 4e-3 Max. displacement (a.u.)
end
* xyz 1 1
 S  -0.280020105740   8.187050254056  -1.968123243037
 O  -2.184677857194   6.324849248839  -5.018492597348
 N  -2.706266664014   8.325288119816  -1.364867756327
 N  -6.471651555129  10.972536920486  -2.872293127610
 N  -4.799442553550  10.262537829834  -4.397865441876
 N  -6.453329550064  10.408460536035  -0.652999876061
 C  -2.593168039835   7.097677168317  -2.004913037002
 C  -3.992622583953   8.909782671133  -0.962893177806
 C  -1.311921949976   6.855690687534  -2.399117718357
 C  -0.782783619709   5.722872246109  -3.200949480816
 C  -4.682396563319   9.593392071580  -2.102251842095
 C  -1.578580450949   9.012872686800  -1.280290076546
 C  -3.780182545518   6.231960467982  -2.189603834329
 C  -0.838588445914   6.016474146795  -4.696130969433
 C  -5.878901706735  10.304405340200  -1.881989906574
 C  -4.208884219296   9.614116695846  -3.400925372679
 C  -5.915785837316  10.936583964534  -4.082438159271
 C  -6.573382005256  11.710524059377  -5.169142240698
 H  -3.788329689643   9.609777671109  -0.151096157889
 H  -4.586674281225   8.102487475423  -0.539149595953
 H  -1.366226930648   4.829446293901  -2.983913522821
 H   0.245397485062   5.498765560771  -2.921772421953
 H  -1.515216342502   9.988491725991  -0.832259912743
 H  -4.147123361573   5.850383646693  -1.235346752676
 H  -4.586087754739   6.775982927880  -2.675898032299
 H  -3.533891151532   5.391963523871  -2.822639293671
 H  -0.484477929866   5.133920649002  -5.235443669867
 H  -0.172123114633   6.849631525474  -4.935509041501
 H  -3.303628259693   9.078509972893  -3.669285503198
 H  -6.329535875345   9.686223685502   0.031654429245
 H  -7.358163479641  10.849890284070  -0.646534572588
 H  -2.263709014623   6.421549433501  -5.972827443523
 H  -7.643982507904  11.877373585795  -4.933950529775
 H  -6.069697544505  12.718748236547  -5.243315143300
 H  -6.439868458342  11.200025576190  -6.147940745965
*



