# put your comments here
%pal nprocs 16 end
! B97-3C  OPT  FREQ DEFGRID3 NOTRAH CHELPG
%scf MaxIter 800 end
%output
Print [P_Hirshfeld] 1
end
%MaxCore 5500
%geom
MaxIter 3000
 TolE 1e-6 #TolE 5e-6 Energy change (a.u.)
 TolRMSG 3e-5 #TolRMSG 1e-4 RMS gradient (a.u.)
 TolMaxG 1e-4 #TolMaxG 3e-3 Max. element of gradient (a.u.)
 TolRMSD 2e-3 #TolRMSD 2e-3 RMS displacement (a.u.)
 TolMaxD 4e-3 #TolMaxD 4e-3 Max. displacement (a.u.)
end
* xyz 0 1
 O      8.049100000      1.418200000     -1.527700000
 O      4.412200000      1.620000000      1.956800000
 O      6.010800000      1.325200000     -2.521100000
 O      6.804200000     -4.083800000     -0.664900000
 O      7.694500000     -3.094300000      1.172400000
 O     -5.909300000     -2.920400000      0.412200000
 N      4.760800000      0.827600000     -0.194900000
 N     -1.647600000      0.908100000      0.104600000
 N     -4.553600000     -0.571000000      0.607400000
 N     -5.906900000      1.750300000     -0.217500000
 N     -7.772600000     -1.836000000     -0.439500000
 N     -7.809700000      0.497800000     -0.769000000
 N     -9.685900000     -0.804200000     -1.304100000
 C      6.200900000      0.827300000     -0.144600000
 C      6.774400000     -0.489500000      0.392600000
 C      6.473600000     -1.740100000     -0.443200000
 C      3.975900000      1.230200000      0.876900000
 C      2.506500000      1.146800000      0.675200000
 C      6.708100000      1.198300000     -1.523000000
 C     -0.252900000      0.987800000      0.296800000
 C     -2.571400000      0.728800000      1.181800000
 C      1.661200000      0.970800000      1.770800000
 C      1.971900000      1.243600000     -0.609500000
 C      0.281600000      0.891100000      1.581700000
 C      0.592200000      1.164000000     -0.798700000
 C      7.050600000     -3.013800000      0.135500000
 C     -3.979300000      0.645700000      0.660500000
 C     -5.814400000     -0.592700000      0.133500000
 C     -4.643100000      1.784300000      0.256100000
 C     -6.495700000      0.537800000     -0.276700000
 C     -6.480500000     -1.896800000      0.057800000
 C     -8.405600000     -0.661100000     -0.838200000
 H      6.503800000      1.640000000      0.528100000
 H      7.863700000     -0.391800000      0.488500000
 H      6.396500000     -0.651900000      1.410800000
 H      6.888900000     -1.616300000     -1.449500000
 H      5.389700000     -1.877500000     -0.524300000
 H      4.329600000      0.439900000     -1.027600000
 H     -2.512800000      1.557300000      1.898800000
 H     -2.352600000     -0.197800000      1.727300000
 H      2.059200000      0.888800000      2.778900000
 H      2.591200000      1.412300000     -1.485500000
 H     -1.986600000      0.979800000     -0.848900000
 H     -0.339600000      0.754000000      2.461600000
 H      0.187400000      1.247700000     -1.804100000
 H     -4.187600000      2.767000000      0.296100000
 H      8.374100000      1.673800000     -2.417300000
 H     -8.290700000     -2.706100000     -0.518100000
 H      7.192500000     -4.908400000     -0.302200000
 H    -10.223700000     -0.003100000     -1.616200000
 H    -10.133400000     -1.713000000     -1.350900000
*



