# put your comments here
%pal nprocs 16 end
! B97-3C  OPT  FREQ DEFGRID3 NOTRAH CHELPG
%scf MaxIter 800 end
%output
Print [P_Hirshfeld] 1
end
%MaxCore 5500
%geom
MaxIter 3000
 TolE 1e-6 #TolE 5e-6 Energy change (a.u.)
 TolRMSG 3e-5 #TolRMSG 1e-4 RMS gradient (a.u.)
 TolMaxG 1e-4 #TolMaxG 3e-3 Max. element of gradient (a.u.)
 TolRMSD 2e-3 #TolRMSD 2e-3 RMS displacement (a.u.)
 TolMaxD 4e-3 #TolMaxD 4e-3 Max. displacement (a.u.)
end
* xyz 0 1
 O      8.230900000      1.089600000      1.438500000
 C     -4.506500000     -0.752900000      0.532700000
 C     -5.865200000     -0.005800000      0.438600000
 C     -5.724200000      1.480000000      0.716300000
 C     -3.378200000      0.025800000     -0.183600000
 C     -4.784400000      2.113100000     -0.298600000
 C     -3.526500000      1.315500000     -0.578300000
 C     -4.742400000     -2.147500000     -0.097400000
 C     -4.139200000     -0.942600000      2.022300000
 C     -2.138900000     -0.706800000     -0.384400000
 C     -2.500800000      2.133100000     -1.329100000
 C     -0.925800000     -0.158500000     -0.211700000
 C      0.370100000     -0.822400000     -0.391800000
 C      0.348900000     -2.270200000     -0.814700000
 C      1.492200000     -0.103800000     -0.170500000
 C      2.868900000     -0.547700000     -0.286600000
 C      3.913100000      0.262400000     -0.039200000
 C      5.334500000     -0.087000000     -0.127400000
 C      5.681500000     -1.493900000     -0.539100000
 C      6.249500000      0.862900000      0.159500000
 C      7.742500000      0.756600000      0.144400000
 H     -6.590800000     -0.439400000      1.138500000
 H     -6.294400000     -0.133100000     -0.565200000
 H     -5.349600000      1.647900000      1.732500000
 H     -6.704800000      1.966700000      0.661300000
 H     -4.515200000      3.112800000      0.064600000
 H     -5.319700000      2.252100000     -1.246900000
 H     -4.869500000     -2.078000000     -1.184000000
 H     -3.919500000     -2.841100000      0.106500000
 H     -5.647000000     -2.613000000      0.312600000
 H     -4.953500000     -1.428800000      2.571700000
 H     -3.249700000     -1.572800000      2.138800000
 H     -3.926900000      0.012300000      2.515200000
 H     -2.228300000     -1.730500000     -0.728700000
 H     -3.004000000      2.796800000     -2.042900000
 H     -1.820500000      1.531500000     -1.937000000
 H     -1.929900000      2.763900000     -0.640700000
 H     -0.853900000      0.858100000      0.169800000
 H      1.340800000     -2.713600000     -0.921900000
 H     -0.184900000     -2.878100000     -0.075600000
 H     -0.148200000     -2.378900000     -1.785200000
 H      1.386700000      0.939200000      0.131600000
 H      3.042800000     -1.574000000     -0.585400000
 H      3.703200000      1.289600000      0.259600000
 H      5.269800000     -2.215700000      0.175100000
 H      6.755400000     -1.683300000     -0.590100000
 H      5.278300000     -1.714000000     -1.533900000
 H      5.893900000      1.855100000      0.440600000
 H      8.152700000      1.480500000     -0.566500000
 H      8.128600000     -0.227600000     -0.122700000
 H      7.909900000      0.411200000      2.057300000
*



