# put your comments here
%pal nprocs 16 end
! B97-3C  OPT  FREQ DEFGRID3 NOTRAH CHELPG
%scf MaxIter 800 end
%output
Print [P_Hirshfeld] 1
end
%MaxCore 5500
%geom
MaxIter 3000
 TolE 1e-6 #TolE 5e-6 Energy change (a.u.)
 TolRMSG 3e-5 #TolRMSG 1e-4 RMS gradient (a.u.)
 TolMaxG 1e-4 #TolMaxG 3e-3 Max. element of gradient (a.u.)
 TolRMSD 2e-3 #TolRMSD 2e-3 RMS displacement (a.u.)
 TolMaxD 4e-3 #TolMaxD 4e-3 Max. displacement (a.u.)
end
* xyz 0 1
 O      1.577100000      1.703900000      0.639500000
 O      3.772300000     -0.245800000     -1.560500000
 O      5.718000000      1.243000000     -0.244700000
 O      5.514500000      0.098400000      2.299200000
 O     -4.659100000      1.631900000      1.067100000
 O     -1.599200000      4.669700000     -0.523500000
 N     -0.394600000      0.168700000     -0.676800000
 N     -2.929300000     -0.352000000      0.476800000
 N     -1.005600000      2.473900000     -0.601300000
 N     -3.123500000      3.186500000      0.266300000
 C      1.968700000      0.594400000     -0.170100000
 C      0.920500000      0.400400000     -1.272200000
 C      3.381300000      0.848800000     -0.732800000
 C      4.443000000      1.038500000      0.367300000
 C     -0.774400000     -1.162800000     -0.398400000
 C     -1.259400000      1.216900000     -0.385200000
 C     -2.040800000     -1.396200000      0.175600000
 C      0.043900000     -2.277100000     -0.662800000
 C     -2.589400000      0.870500000      0.225800000
 C      4.540000000     -0.170900000      1.296200000
 C     -0.378500000     -3.576300000     -0.369000000
 C     -2.455500000     -2.704900000      0.466600000
 C     -1.628600000     -3.790700000      0.195800000
 C     -3.585200000      1.928500000      0.572600000
 C      0.533300000     -4.720400000     -0.671600000
 C     -2.103900000     -5.168000000      0.521000000
 C     -1.885700000      3.491200000     -0.300900000
 H      1.972000000     -0.301600000      0.458400000
 H      0.875300000      1.322100000     -1.868500000
 H      1.203100000     -0.365800000     -2.000700000
 H      3.373300000      1.745100000     -1.365400000
 H      4.223700000      1.941200000      0.949000000
 H      1.036900000     -2.160600000     -1.085800000
 H      3.602200000     -0.393500000      1.809400000
 H      4.873700000     -1.063100000      0.757700000
 H     -3.436900000     -2.863500000      0.909600000
 H      0.799500000      1.429300000      1.153900000
 H      4.664300000     -0.053400000     -1.896700000
 H      6.369100000      1.353800000      0.469300000
 H      1.477300000     -4.384600000     -1.114800000
 H      0.784000000     -5.265800000      0.244100000
 H      0.067700000     -5.405400000     -1.387600000
 H     -3.108300000     -5.158300000      0.958600000
 H     -2.152500000     -5.783200000     -0.383300000
 H     -1.439500000     -5.643500000      1.249800000
 H     -3.739500000      3.968300000      0.470900000
 H      5.211800000      0.874600000      2.800800000
*



