# put your comments here
%pal nprocs 16 end
! B97-3C  OPT  FREQ DEFGRID3 NOTRAH CHELPG
%scf MaxIter 800 end
%output
Print [P_Hirshfeld] 1
end
%MaxCore 5500
%geom
MaxIter 3000
 TolE 1e-6 #TolE 5e-6 Energy change (a.u.)
 TolRMSG 3e-5 #TolRMSG 1e-4 RMS gradient (a.u.)
 TolMaxG 1e-4 #TolMaxG 3e-3 Max. element of gradient (a.u.)
 TolRMSD 2e-3 #TolRMSD 2e-3 RMS displacement (a.u.)
 TolMaxD 4e-3 #TolMaxD 4e-3 Max. displacement (a.u.)
end
* xyz 0 1
 O      1.638000000      1.842100000     -0.509100000
 O     -1.394800000      2.403400000      0.909500000
 O     -2.907100000     -1.231500000     -0.939700000
 N      1.304200000     -1.695700000      0.314000000
 C     -0.326000000      0.536200000     -0.104200000
 C     -0.893800000     -0.694500000      0.206600000
 C      1.055800000      0.652300000     -0.206100000
 C      1.819700000     -0.483300000      0.010200000
 C     -1.195000000      1.732000000     -0.327100000
 C     -2.367000000     -0.877000000      0.328100000
 C     -0.042700000     -1.769800000      0.404400000
 C      3.308700000     -0.414200000     -0.086500000
 H     -0.727900000      2.433200000     -1.028000000
 H     -2.164300000      1.477800000     -0.766900000
 H     -2.596800000     -1.688000000      1.029000000
 H     -2.886800000      0.005100000      0.712500000
 H     -0.424100000     -2.756900000      0.647300000
 H      3.714200000      0.285000000      0.651800000
 H      3.755600000     -1.394600000      0.112400000
 H      3.619200000     -0.112100000     -1.091900000
 H      2.603800000      1.763900000     -0.544600000
 H     -1.953400000      3.178100000      0.726800000
 H     -2.328400000     -1.898000000     -1.347400000
*



