# put your comments here
%pal nprocs 16 end
! B97-3C  OPT  FREQ DEFGRID3 NOTRAH CHELPG
%scf MaxIter 800 end
%output
Print [P_Hirshfeld] 1
end
%MaxCore 5500
%geom
MaxIter 3000
 TolE 1e-6 #TolE 5e-6 Energy change (a.u.)
 TolRMSG 3e-5 #TolRMSG 1e-4 RMS gradient (a.u.)
 TolMaxG 1e-4 #TolMaxG 3e-3 Max. element of gradient (a.u.)
 TolRMSD 2e-3 #TolRMSD 2e-3 RMS displacement (a.u.)
 TolMaxD 4e-3 #TolMaxD 4e-3 Max. displacement (a.u.)
end
* xyz 1 1
 S      1.948200000     -1.403100000      1.196000000
 O      6.456000000      0.091400000      0.446600000
 N      0.664700000     -0.106800000     -0.494100000
 N     -3.720100000     -0.863900000      0.040400000
 N     -3.346800000      1.425300000      0.694400000
 N     -2.122900000     -2.001100000     -1.293700000
 C      1.855200000      0.557900000     -0.418900000
 C     -0.422000000      0.311200000     -1.382500000
 C      2.705400000     -0.031300000      0.486300000
 C      4.076100000      0.346300000      0.883600000
 C     -1.720500000      0.278500000     -0.659900000
 C      0.529400000     -1.153100000      0.273500000
 C      2.064900000      1.745500000     -1.260000000
 C      5.162900000     -0.319700000      0.020500000
 C     -2.540900000     -0.830100000     -0.614500000
 C     -2.179100000      1.388800000      0.019300000
 C     -4.056600000      0.281300000      0.664000000
 C     -5.354000000      0.282800000      1.399000000
 H     -0.402000000     -0.322800000     -2.275100000
 H     -0.278100000      1.328300000     -1.758800000
 H      4.262600000      0.101700000      1.937700000
 H      4.198900000      1.435800000      0.832400000
 H     -0.309500000     -1.818300000      0.364200000
 H      1.902300000      1.520200000     -2.318900000
 H      1.405600000      2.565200000     -0.957100000
 H      3.091800000      2.116500000     -1.176700000
 H      5.046100000     -0.056200000     -1.036300000
 H      5.111900000     -1.410400000      0.102100000
 H     -1.609300000      2.312300000      0.049300000
 H     -1.618300000     -1.910600000     -2.165300000
 H     -2.740500000     -2.800400000     -1.211700000
 H      6.496900000      1.059300000      0.361800000
 H     -5.616200000     -0.726900000      1.730100000
 H     -5.297500000      0.925300000      2.283300000
 H     -6.148400000      0.654300000      0.745100000
*



