# put your comments here
%pal nprocs 16 end
! B97-3C  OPT  FREQ DEFGRID3 NOTRAH CHELPG
%scf MaxIter 800 end
%output
Print [P_Hirshfeld] 1
end
%MaxCore 5500
%geom
MaxIter 3000
 TolE 1e-6 #TolE 5e-6 Energy change (a.u.)
 TolRMSG 3e-5 #TolRMSG 1e-4 RMS gradient (a.u.)
 TolMaxG 1e-4 #TolMaxG 3e-3 Max. element of gradient (a.u.)
 TolRMSD 2e-3 #TolRMSD 2e-3 RMS displacement (a.u.)
 TolMaxD 4e-3 #TolMaxD 4e-3 Max. displacement (a.u.)
end
* xyz 0 1
 S     -2.461300000      1.956200000      1.026400000
 O     -3.028200000     -2.774500000      0.786200000
 O      5.960100000     -0.728600000     -0.862500000
 O      5.234500000     -0.156200000      1.211800000
 N     -1.638900000     -1.077600000     -0.037900000
 N     -3.865300000     -0.876000000     -0.301600000
 C     -1.796300000      0.156100000     -0.784700000
 C     -3.327200000      0.332500000     -0.894600000
 C     -1.175900000      1.386100000     -0.116400000
 C     -3.788100000      1.577500000     -0.140200000
 C      0.151500000      1.155000000      0.586400000
 C      1.253600000      0.636900000     -0.341000000
 C     -2.864100000     -1.702600000      0.219600000
 C      2.626500000      0.437600000      0.307500000
 C      3.701800000     -0.023400000     -0.675700000
 C      5.017300000     -0.298900000      0.016700000
 H     -1.349000000     -0.016200000     -1.770400000
 H     -3.667100000      0.361900000     -1.935300000
 H     -1.054200000      2.175100000     -0.868600000
 H     -3.879500000      2.424900000     -0.827200000
 H     -4.742800000      1.444100000      0.377000000
 H      0.493600000      2.100200000      1.028600000
 H      0.037100000      0.453600000      1.423000000
 H     -0.744800000     -1.496100000      0.198100000
 H     -4.853800000     -1.105400000     -0.275200000
 H      0.949500000     -0.316000000     -0.787800000
 H      1.364300000      1.343000000     -1.174300000
 H      2.944100000      1.377200000      0.777000000
 H      2.530800000     -0.295400000      1.118700000
 H      3.866200000      0.749000000     -1.434700000
 H      3.379200000     -0.946900000     -1.168800000
 H      6.817600000     -0.906600000     -0.420500000
*



