# put your comments here
%pal nprocs 16 end
! B97-3C  OPT  FREQ DEFGRID3 NOTRAH CHELPG
%scf MaxIter 800 end
%output
Print [P_Hirshfeld] 1
end
%MaxCore 5500
%geom
MaxIter 3000
 TolE 1e-6 #TolE 5e-6 Energy change (a.u.)
 TolRMSG 3e-5 #TolRMSG 1e-4 RMS gradient (a.u.)
 TolMaxG 1e-4 #TolMaxG 3e-3 Max. element of gradient (a.u.)
 TolRMSD 2e-3 #TolRMSD 2e-3 RMS displacement (a.u.)
 TolMaxD 4e-3 #TolMaxD 4e-3 Max. displacement (a.u.)
end
* xyz 0 1
 O     -2.282700000     -1.202900000     -0.000700000
 O     -2.470400000      1.062400000      0.000200000
 N      1.757000000     -1.216500000      0.000200000
 C     -0.303600000      0.048100000      0.000200000
 C      0.417500000      1.236900000     -0.000100000
 C      0.407100000     -1.141400000      0.000300000
 C      1.807500000      1.200600000     -0.000300000
 C      2.423700000     -0.040400000     -0.000100000
 C     -1.756000000      0.053100000      0.000300000
 H     -0.085900000      2.199900000     -0.000200000
 H     -0.075200000     -2.113700000      0.000600000
 H      2.390200000      2.114700000     -0.000600000
 H      3.505600000     -0.123200000     -0.000200000
 H     -3.263600000     -1.187000000     -0.001100000
*



