# put your comments here
%pal nprocs 16 end
! B97-3C  OPT  FREQ DEFGRID3 NOTRAH CHELPG
%scf MaxIter 800 end
%output
Print [P_Hirshfeld] 1
end
%MaxCore 5500
%geom
MaxIter 3000
 TolE 1e-6 #TolE 5e-6 Energy change (a.u.)
 TolRMSG 3e-5 #TolRMSG 1e-4 RMS gradient (a.u.)
 TolMaxG 1e-4 #TolMaxG 3e-3 Max. element of gradient (a.u.)
 TolRMSD 2e-3 #TolRMSD 2e-3 RMS displacement (a.u.)
 TolMaxD 4e-3 #TolMaxD 4e-3 Max. displacement (a.u.)
end
* xyz 0 1
 O     -2.752900000     -1.694400000      0.333800000
 O     -1.107300000      2.879400000     -0.196300000
 O     -0.484900000     -2.118500000     -1.075000000
 O      3.080800000      1.613000000     -0.879300000
 O      3.151100000      0.790700000      1.235900000
 N      0.733200000     -1.222900000      0.685000000
 C     -1.981200000      0.601800000      0.045500000
 C     -1.658300000     -0.819600000      0.594400000
 C     -0.810300000      1.581000000      0.306000000
 C     -3.244200000      1.132500000      0.765200000
 C     -2.294300000      0.554000000     -1.463400000
 C     -0.426600000     -1.469800000     -0.032000000
 C      2.030000000     -1.711500000      0.276500000
 C      2.753400000     -0.725100000     -0.630900000
 C      3.011600000      0.609400000      0.034400000
 H     -1.532700000     -0.782900000      1.682900000
 H      0.111300000      1.250900000     -0.180600000
 H     -0.612000000      1.673000000      1.379100000
 H     -4.110000000      0.483600000      0.592600000
 H     -3.517800000      2.134000000      0.414900000
 H     -3.081800000      1.192000000      1.847300000
 H     -2.599800000      1.536100000     -1.842100000
 H     -3.119100000     -0.127500000     -1.694600000
 H     -1.421000000      0.240300000     -2.044500000
 H      0.685800000     -0.664600000      1.532200000
 H     -2.789200000     -1.875200000     -0.620000000
 H      2.606100000     -1.891600000      1.190300000
 H      1.905700000     -2.668800000     -0.241000000
 H     -0.991900000      2.857700000     -1.161100000
 H      2.147600000     -0.552000000     -1.528400000
 H      3.719400000     -1.136800000     -0.941200000
 H      3.249300000      2.481600000     -0.455700000
*



