# put your comments here
%pal nprocs 16 end
! B97-3C  OPT  FREQ DEFGRID3 NOTRAH CHELPG
%scf MaxIter 800 end
%output
Print [P_Hirshfeld] 1
end
%MaxCore 5500
%geom
MaxIter 3000
 TolE 1e-6 #TolE 5e-6 Energy change (a.u.)
 TolRMSG 3e-5 #TolRMSG 1e-4 RMS gradient (a.u.)
 TolMaxG 1e-4 #TolMaxG 3e-3 Max. element of gradient (a.u.)
 TolRMSD 2e-3 #TolRMSD 2e-3 RMS displacement (a.u.)
 TolMaxD 4e-3 #TolMaxD 4e-3 Max. displacement (a.u.)
end
* xyz 0 1
 O      0.093200000     -1.106600000      0.644500000
 O     -1.343600000      0.089200000     -1.386300000
 O      0.839200000      2.390100000      0.284400000
 O     -3.892900000     -0.204000000     -0.332600000
 O      3.022000000      0.569500000     -0.605600000
 O      1.991500000     -2.156000000     -0.137600000
 C     -0.339700000      0.261800000      0.785300000
 C     -1.605900000      0.458500000     -0.033000000
 C      0.821200000      1.026500000      0.288700000
 C     -2.746400000     -0.408200000      0.486300000
 C      1.807700000      0.227300000     -0.104900000
 C      1.353600000     -1.148100000      0.110800000
 H     -0.515400000      0.460900000      1.848400000
 H     -1.916200000      1.509200000     -0.043200000
 H     -2.498900000     -1.473500000      0.435100000
 H     -3.001300000     -0.146200000      1.517900000
 H     -1.099900000     -0.852200000     -1.398600000
 H      0.003900000      2.695700000      0.678000000
 H     -4.602300000     -0.764400000      0.025700000
 H      3.502400000     -0.257200000     -0.785600000
*



