%pal nprocs 16 end
%MaxCore 6000
# put your comments here
! B97-3C  OPT  FREQ DEFGRID3 NOTRAH
%scf MaxIter 800 end
%output
Print [P_Hirshfeld] 1
end
%geom
MaxIter 3000
 TolE 1e-6 #TolE 5e-6 Energy change (a.u.)
 TolRMSG 3e-5 #TolRMSG 1e-4 RMS gradient (a.u.)
 TolMaxG 1e-4 #TolMaxG 3e-3 Max. element of gradient (a.u.)
 TolRMSD 2e-3 #TolRMSD 2e-3 RMS displacement (a.u.)
 TolMaxD 4e-3 #TolMaxD 4e-3 Max. displacement (a.u.)
end
* xyz 0 1
 O   8.024859117311  -3.055947976948   2.071043954643
 C  -3.910095473938   1.744307218596  -0.096867959431
 C  -5.387202741125   1.437896824549   0.167652243019
 C  -5.582811733769   0.310805409868   1.156426697467
 C  -3.099032104315   0.455542824583  -0.266857181595
 C  -4.980840567330  -0.955460228564   0.587714090269
 C  -3.614375949498  -0.763626420569  -0.000891848785
 C  -3.321739632800   2.552506508295   1.065174818917
 C  -3.844707694190   2.602399093204  -1.366041285875
 C  -1.728768105492   0.643271020446  -0.725791824038
 C  -2.919212561152  -2.056084388313  -0.297887068593
 C  -0.638640045279   0.048229769337  -0.201941196051
 C   0.720574131827   0.225494245221  -0.635961584807
 C   0.987237445504   1.137034378139  -1.792431087999
 C   1.702974443337  -0.446831483650   0.027403444993
 C   3.103172009489  -0.431109181561  -0.223074786114
 C   3.995760124437  -1.142701212622   0.505537652052
 C   5.422072707656  -1.178784489486   0.311764583817
 C   6.020287981823  -0.366798666237  -0.798471237645
 C   6.176206787446  -1.930307541536   1.136304798390
 C   7.657361959518  -2.083023775440   1.094520914176
 H  -5.863475779040   1.158759939544  -0.776302401279
 H  -5.879952288441   2.351837016341   0.504632878113
 H  -6.641801159568   0.168076960562   1.374405788203
 H  -5.102150665419   0.556992095868   2.105947165067
 H  -5.642332444574  -1.370344852133  -0.180240797689
 H  -4.923145480615  -1.731587228843   1.358409058072
 H  -3.393543052152   2.012654646617   2.005479198224
 H  -2.266295542674   2.764000813286   0.893125667022
 H  -3.842905865438   3.503685486074   1.174204401011
 H  -4.544225253221   3.432318801546  -1.284543651256
 H  -2.858281338016   3.031040754509  -1.531969739640
 H  -4.115571661831   2.021388989004  -2.249215423939
 H  -1.580602171424   1.362432594557  -1.521091757967
 H  -2.534173905412  -2.524594113620   0.614702892184
 H  -2.089841807082  -1.944199759455  -0.984204431592
 H  -3.631899220102  -2.767242326544  -0.721115370200
 H  -0.776995722249  -0.616143982570   0.643846350101
 H   2.038317179268   1.188891970807  -2.054168803555
 H   0.449692750805   0.790202381802  -2.687579941054
 H   0.639645022545   2.140723955862  -1.589394724487
 H   1.387485120016  -1.073265328508   0.857426457671
 H   3.466713925894   0.171907242393  -1.045361522100
 H   3.618521946207  -1.732350782391   1.336121132430
 H   5.563316805120  -0.659045223675  -1.766622071683
 H   7.090662625920  -0.526891642398  -0.903329805878
 H   5.840464329611   0.684457846497  -0.672991777805
 H   5.702431937772  -2.422522151196   1.983862989792
 H   8.142782907414  -1.081176582649   1.485440780684
 H   8.022992880421  -2.212693747750   0.103566790289
 H   8.978782269063  -3.161855031278   2.041400051439
*



