%pal nprocs 16 end
%MaxCore 6000
# put your comments here
! B97-3C  OPT  FREQ DEFGRID3 NOTRAH
%scf MaxIter 800 end
%output
Print [P_Hirshfeld] 1
end
%geom
MaxIter 3000
 TolE 1e-6 #TolE 5e-6 Energy change (a.u.)
 TolRMSG 3e-5 #TolRMSG 1e-4 RMS gradient (a.u.)
 TolMaxG 1e-4 #TolMaxG 3e-3 Max. element of gradient (a.u.)
 TolRMSD 2e-3 #TolRMSD 2e-3 RMS displacement (a.u.)
 TolMaxD 4e-3 #TolMaxD 4e-3 Max. displacement (a.u.)
end
* xyz 0 1
 O       1.67797046       0.77930834      -1.23629260
 O      -0.91224148       1.11778452      -1.70507578
 O      -0.19683157      -1.32083049      -4.29569887
 O      -3.01863968       0.71927522      -3.22844147
 O      -4.15184788       0.34377520       2.46982198
 O      -4.11303807      -1.23302230      -1.75576373
 N      -0.05925466      -0.75048525       0.27250340
 N      -1.32865680       0.36182735       2.45486193
 N      -2.10103290      -1.18267609      -0.68649197
 N      -4.10408065      -0.57772416       0.39876258
 C       0.98280307      -0.23820476      -1.88743818
 C       0.57506829      -1.30402230      -0.89852215
 C      -0.16722785       0.39645836      -2.62379915
 C      -1.00455329      -0.57746185      -3.41924025
 C       0.70135226      -0.26303351       1.32054932
 C      -1.41119367      -0.70620423       0.30231374
 C       0.04207126       0.30247380       2.41052672
 C       2.09766286      -0.31628744       1.34303520
 C      -2.01553632      -0.11137089       1.48477354
 C      -2.11304602       0.15983746      -4.13888365
 C       2.81574613       0.18391630       2.40242705
 C       0.77968272       0.81041438       3.49366644
 C       2.14770229       0.76401180       3.51237273
 C      -3.51490140      -0.07547880       1.54642004
 C       4.31910313       0.11849979       2.37647042
 C       2.92584169       1.31422193       4.67950941
 C      -3.45938054      -1.02962890      -0.74656280
 H       1.65293690      -0.72163322      -2.61199412
 H      -0.10692322      -2.01177670      -1.35315464
 H       1.45591630      -1.85276553      -0.57898959
 H       0.29296816       1.09159949      -3.34132380
 H      -1.47678151      -1.28024390      -2.74151724
 H       2.62320155      -0.72303939       0.49990556
 H      -1.70375501       0.97645060      -4.74146381
 H      -2.60704757      -0.53738724      -4.82226820
 H       0.21326249       1.23645050       4.31105747
 H       1.03246321       1.45317511      -1.00073086
 H      -1.79836188       1.24021466      -2.08822266
 H       0.14969415      -0.73009933      -4.97136992
 H       4.67585305      -0.34592707       1.45899538
 H       4.74774856       1.12067390       2.44507599
 H       4.69411894      -0.45622676       3.22653354
 H       2.25337189       1.71576824       5.43617378
 H       3.53879504       0.53728209       5.14213761
 H       3.59859903       2.11303080       4.35897220
 H      -5.10854641      -0.50441303       0.33311211
 H      -3.52105506      -0.00650668      -2.80673269
*



